# vtk DataFile Version 3.0
Particle data
ASCII
DATASET POLYDATA
POINTS 4 float
   0.310601E+01   0.188267E+01   0.000000E+00
   0.315327E+01   0.188267E+01   0.000000E+00
   0.310601E+01   0.184356E+01   0.000000E+00
   0.315327E+01   0.184356E+01   0.000000E+00
POINT_DATA 4
VECTORS velocity float
   0.690251-309   0.690251-309   0.000000E+00
   0.000000E+00   0.000000E+00   0.000000E+00
   0.170000E+01   0.180000E+01   0.000000E+00
   0.190000E+01   0.200000E+01   0.000000E+00
SCALARS volume float 1
LOOKUP_TABLE default
   0.100000E-11
   0.100000E-11
   0.100000E-11
   0.100000E-11
TENSORS stress float
   0.000000E+00   0.126837E+05   0.000000E+00
   0.126837E+05   0.290233E+04   0.000000E+00
   0.000000E+00   0.000000E+00   0.000000E+00
   0.000000E+00   0.294283E+05   0.000000E+00
   0.294283E+05   0.288971E+04   0.000000E+00
   0.000000E+00   0.000000E+00   0.000000E+00
   0.000000E+00   0.528625E+06   0.000000E+00
   0.528625E+06   0.317168E+04   0.000000E+00
   0.000000E+00   0.000000E+00   0.000000E+00
   0.000000E+00   0.601330E+06   0.000000E+00
   0.601330E+06   0.316743E+04   0.000000E+00
   0.000000E+00   0.000000E+00   0.000000E+00
