# vtk DataFile Version 3.0
Particle data
ASCII
DATASET POLYDATA
POINTS 4 float
   0.812162E+00   0.193732E+01   0.000000E+00
   0.867713E+00   0.193732E+01   0.000000E+00
   0.812162E+00   0.189731E+01   0.000000E+00
   0.867713E+00   0.189731E+01   0.000000E+00
POINT_DATA 4
VECTORS velocity float
   0.690251-309   0.690251-309   0.000000E+00
   0.000000E+00   0.000000E+00   0.000000E+00
   0.170000E+01   0.180000E+01   0.000000E+00
   0.190000E+01   0.200000E+01   0.000000E+00
SCALARS volume float 1
LOOKUP_TABLE default
   0.100000E-11
   0.100000E-11
   0.100000E-11
   0.100000E-11
TENSORS stress float
   0.000000E+00   0.000000E+00   0.000000E+00
   0.000000E+00   0.234736E+04   0.000000E+00
   0.000000E+00   0.000000E+00   0.000000E+00
   0.000000E+00   0.486876E+04   0.000000E+00
   0.486876E+04   0.234785E+04   0.000000E+00
   0.000000E+00   0.000000E+00   0.000000E+00
   0.000000E+00   0.360069E+06   0.000000E+00
   0.360069E+06   0.259834E+04   0.000000E+00
   0.000000E+00   0.000000E+00   0.000000E+00
   0.000000E+00   0.386015E+06   0.000000E+00
   0.386015E+06   0.260720E+04   0.000000E+00
   0.000000E+00   0.000000E+00   0.000000E+00
