# vtk DataFile Version 3.0
Particle data
ASCII
DATASET POLYDATA
POINTS 4 float
   0.630499E+00   0.195443E+01   0.000000E+00
   0.685418E+00   0.195443E+01   0.000000E+00
   0.630499E+00   0.191531E+01   0.000000E+00
   0.685418E+00   0.191531E+01   0.000000E+00
POINT_DATA 4
VECTORS velocity float
   0.690251-309   0.690251-309   0.000000E+00
   0.000000E+00   0.000000E+00   0.000000E+00
   0.170000E+01   0.180000E+01   0.000000E+00
   0.190000E+01   0.200000E+01   0.000000E+00
SCALARS volume float 1
LOOKUP_TABLE default
   0.100000E-11
   0.100000E-11
   0.100000E-11
   0.100000E-11
TENSORS stress float
   0.112438E+02   0.000000E+00   0.000000E+00
   0.000000E+00   0.166595E+04   0.000000E+00
   0.000000E+00   0.000000E+00   0.000000E+00
   0.105702E+02   0.106582E+05   0.000000E+00
   0.106582E+05   0.167356E+04   0.000000E+00
   0.000000E+00   0.000000E+00   0.000000E+00
   0.112438E+02   0.525012E+04   0.000000E+00
   0.525012E+04   0.193776E+04   0.000000E+00
   0.000000E+00   0.000000E+00   0.000000E+00
   0.105702E+02   0.264995E+05   0.000000E+00
   0.264995E+05   0.195374E+04   0.000000E+00
   0.000000E+00   0.000000E+00   0.000000E+00
