# vtk DataFile Version 3.0
Particle data
ASCII
DATASET POLYDATA
POINTS 4 float
   0.531793E+00   0.196913E+01   0.000000E+00
   0.586429E+00   0.196913E+01   0.000000E+00
   0.531793E+00   0.193017E+01   0.000000E+00
   0.586429E+00   0.193017E+01   0.000000E+00
POINT_DATA 4
VECTORS velocity float
   0.690251-309   0.690251-309   0.000000E+00
   0.000000E+00   0.000000E+00   0.000000E+00
   0.170000E+01   0.180000E+01   0.000000E+00
   0.190000E+01   0.200000E+01   0.000000E+00
SCALARS volume float 1
LOOKUP_TABLE default
   0.100000E-11
   0.100000E-11
   0.100000E-11
   0.100000E-11
TENSORS stress float
   0.110727E+02   0.822930E+03   0.000000E+00
   0.822930E+03   0.976619E+03   0.000000E+00
   0.000000E+00   0.000000E+00   0.000000E+00
   0.102625E+02   0.888727E+04   0.000000E+00
   0.888727E+04   0.984219E+03   0.000000E+00
   0.000000E+00   0.000000E+00   0.000000E+00
   0.110727E+02   0.124290E+05   0.000000E+00
   0.124290E+05   0.124842E+04   0.000000E+00
   0.000000E+00   0.000000E+00   0.000000E+00
   0.102625E+02   0.247286E+05   0.000000E+00
   0.247286E+05   0.126439E+04   0.000000E+00
   0.000000E+00   0.000000E+00   0.000000E+00
