# vtk DataFile Version 3.0
Particle data
ASCII
DATASET POLYDATA
POINTS 4 float
   0.743888E+00   0.194277E+01   0.000000E+00
   0.799205E+00   0.194277E+01   0.000000E+00
   0.743888E+00   0.190326E+01   0.000000E+00
   0.799205E+00   0.190326E+01   0.000000E+00
POINT_DATA 4
VECTORS velocity float
   0.690251-309   0.690251-309   0.000000E+00
   0.000000E+00   0.000000E+00   0.000000E+00
   0.170000E+01   0.180000E+01   0.000000E+00
   0.190000E+01   0.200000E+01   0.000000E+00
SCALARS volume float 1
LOOKUP_TABLE default
   0.100000E-11
   0.100000E-11
   0.100000E-11
   0.100000E-11
TENSORS stress float
   0.728877E+01   0.000000E+00   0.000000E+00
   0.000000E+00   0.223551E+04   0.000000E+00
   0.000000E+00   0.000000E+00   0.000000E+00
   0.682477E+01   0.846906E+04   0.000000E+00
   0.846906E+04   0.224312E+04   0.000000E+00
   0.000000E+00   0.000000E+00   0.000000E+00
   0.728877E+01   0.000000E+00   0.000000E+00
   0.000000E+00   0.250731E+04   0.000000E+00
   0.000000E+00   0.000000E+00   0.000000E+00
   0.682477E+01   0.243104E+05   0.000000E+00
   0.243104E+05   0.252329E+04   0.000000E+00
   0.000000E+00   0.000000E+00   0.000000E+00
