# vtk DataFile Version 3.0
Particle data
ASCII
DATASET POLYDATA
POINTS 4 float
   0.338573E+01   0.187143E+01   0.000000E+00
   0.343243E+01   0.187143E+01   0.000000E+00
   0.338573E+01   0.183242E+01   0.000000E+00
   0.343243E+01   0.183242E+01   0.000000E+00
POINT_DATA 4
VECTORS velocity float
   0.690251-309   0.690251-309   0.000000E+00
   0.000000E+00   0.000000E+00   0.000000E+00
   0.170000E+01   0.180000E+01   0.000000E+00
   0.190000E+01   0.200000E+01   0.000000E+00
SCALARS volume float 1
LOOKUP_TABLE default
   0.100000E-11
   0.100000E-11
   0.100000E-11
   0.100000E-11
TENSORS stress float
   0.000000E+00   0.141114E+05   0.000000E+00
   0.141114E+05   0.318037E+04   0.000000E+00
   0.000000E+00   0.000000E+00   0.000000E+00
   0.000000E+00   0.388458E+05   0.000000E+00
   0.388458E+05   0.316778E+04   0.000000E+00
   0.000000E+00   0.000000E+00   0.000000E+00
   0.000000E+00   0.530052E+06   0.000000E+00
   0.530052E+06   0.344972E+04   0.000000E+00
   0.000000E+00   0.000000E+00   0.000000E+00
   0.000000E+00   0.610747E+06   0.000000E+00
   0.610747E+06   0.344551E+04   0.000000E+00
   0.000000E+00   0.000000E+00   0.000000E+00
