# vtk DataFile Version 3.0
Particle data
ASCII
DATASET POLYDATA
POINTS 4 float
   0.316460E+01   0.188051E+01   0.000000E+00
   0.321135E+01   0.188051E+01   0.000000E+00
   0.316460E+01   0.184142E+01   0.000000E+00
   0.321135E+01   0.184142E+01   0.000000E+00
POINT_DATA 4
VECTORS velocity float
   0.690251-309   0.690251-309   0.000000E+00
   0.000000E+00   0.000000E+00   0.000000E+00
   0.170000E+01   0.180000E+01   0.000000E+00
   0.190000E+01   0.200000E+01   0.000000E+00
SCALARS volume float 1
LOOKUP_TABLE default
   0.100000E-11
   0.100000E-11
   0.100000E-11
   0.100000E-11
TENSORS stress float
   0.000000E+00   0.140835E+05   0.000000E+00
   0.140835E+05   0.294558E+04   0.000000E+00
   0.000000E+00   0.000000E+00   0.000000E+00
   0.000000E+00   0.319361E+05   0.000000E+00
   0.319361E+05   0.293299E+04   0.000000E+00
   0.000000E+00   0.000000E+00   0.000000E+00
   0.000000E+00   0.530024E+06   0.000000E+00
   0.530024E+06   0.321493E+04   0.000000E+00
   0.000000E+00   0.000000E+00   0.000000E+00
   0.000000E+00   0.603837E+06   0.000000E+00
   0.603837E+06   0.321071E+04   0.000000E+00
   0.000000E+00   0.000000E+00   0.000000E+00
