# vtk DataFile Version 3.0
Particle data
ASCII
DATASET POLYDATA
POINTS 4 float
   0.602868E+00   0.195754E+01   0.000000E+00
   0.657807E+00   0.195754E+01   0.000000E+00
   0.602868E+00   0.191842E+01   0.000000E+00
   0.657807E+00   0.191842E+01   0.000000E+00
POINT_DATA 4
VECTORS velocity float
   0.690251-309   0.690251-309   0.000000E+00
   0.000000E+00   0.000000E+00   0.000000E+00
   0.170000E+01   0.180000E+01   0.000000E+00
   0.190000E+01   0.200000E+01   0.000000E+00
SCALARS volume float 1
LOOKUP_TABLE default
   0.100000E-11
   0.100000E-11
   0.100000E-11
   0.100000E-11
TENSORS stress float
   0.692849E+01   0.000000E+00   0.000000E+00
   0.000000E+00   0.164903E+04   0.000000E+00
   0.000000E+00   0.000000E+00   0.000000E+00
   0.625482E+01   0.113514E+05   0.000000E+00
   0.113514E+05   0.165663E+04   0.000000E+00
   0.000000E+00   0.000000E+00   0.000000E+00
   0.692849E+01   0.594329E+04   0.000000E+00
   0.594329E+04   0.192083E+04   0.000000E+00
   0.000000E+00   0.000000E+00   0.000000E+00
   0.625482E+01   0.271927E+05   0.000000E+00
   0.271927E+05   0.193681E+04   0.000000E+00
   0.000000E+00   0.000000E+00   0.000000E+00
