# vtk DataFile Version 3.0
Particle data
ASCII
DATASET POLYDATA
POINTS 4 float
   0.301532E+01   0.188654E+01   0.000000E+00
   0.306261E+01   0.188654E+01   0.000000E+00
   0.301532E+01   0.184733E+01   0.000000E+00
   0.306261E+01   0.184733E+01   0.000000E+00
POINT_DATA 4
VECTORS velocity float
   0.690251-309   0.690251-309   0.000000E+00
   0.000000E+00   0.000000E+00   0.000000E+00
   0.170000E+01   0.180000E+01   0.000000E+00
   0.190000E+01   0.200000E+01   0.000000E+00
SCALARS volume float 1
LOOKUP_TABLE default
   0.100000E-11
   0.100000E-11
   0.100000E-11
   0.100000E-11
TENSORS stress float
   0.177057E+01   0.107878E+05   0.000000E+00
   0.107878E+05   0.279289E+04   0.000000E+00
   0.000000E+00   0.000000E+00   0.000000E+00
   0.154104E+01   0.242579E+05   0.000000E+00
   0.242579E+05   0.278026E+04   0.000000E+00
   0.000000E+00   0.000000E+00   0.000000E+00
   0.177057E+01   0.526729E+06   0.000000E+00
   0.526729E+06   0.306224E+04   0.000000E+00
   0.000000E+00   0.000000E+00   0.000000E+00
   0.154104E+01   0.596159E+06   0.000000E+00
   0.596159E+06   0.305798E+04   0.000000E+00
   0.000000E+00   0.000000E+00   0.000000E+00
