# vtk DataFile Version 3.0
Particle data
ASCII
DATASET POLYDATA
POINTS 4 float
   0.558997E+00   0.196514E+01   0.000000E+00
   0.613131E+00   0.196514E+01   0.000000E+00
   0.558997E+00   0.192613E+01   0.000000E+00
   0.613131E+00   0.192613E+01   0.000000E+00
POINT_DATA 4
VECTORS velocity float
   0.690251-309   0.690251-309   0.000000E+00
   0.000000E+00   0.000000E+00   0.000000E+00
   0.170000E+01   0.180000E+01   0.000000E+00
   0.190000E+01   0.200000E+01   0.000000E+00
SCALARS volume float 1
LOOKUP_TABLE default
   0.100000E-11
   0.100000E-11
   0.100000E-11
   0.100000E-11
TENSORS stress float
   0.111414E+02   0.516241E+03   0.000000E+00
   0.516241E+03   0.124402E+04   0.000000E+00
   0.000000E+00   0.000000E+00   0.000000E+00
   0.139511E+02   0.118478E+05   0.000000E+00
   0.118478E+05   0.125173E+04   0.000000E+00
   0.000000E+00   0.000000E+00   0.000000E+00
   0.111414E+02   0.121223E+05   0.000000E+00
   0.121223E+05   0.151582E+04   0.000000E+00
   0.000000E+00   0.000000E+00   0.000000E+00
   0.139511E+02   0.276892E+05   0.000000E+00
   0.276892E+05   0.153191E+04   0.000000E+00
   0.000000E+00   0.000000E+00   0.000000E+00
