# vtk DataFile Version 3.0
Particle data
ASCII
DATASET POLYDATA
POINTS 4 float
   0.320138E+01   0.187870E+01   0.000000E+00
   0.324861E+01   0.187870E+01   0.000000E+00
   0.320138E+01   0.183964E+01   0.000000E+00
   0.324861E+01   0.183964E+01   0.000000E+00
POINT_DATA 4
VECTORS velocity float
   0.690251-309   0.690251-309   0.000000E+00
   0.000000E+00   0.000000E+00   0.000000E+00
   0.170000E+01   0.180000E+01   0.000000E+00
   0.190000E+01   0.200000E+01   0.000000E+00
SCALARS volume float 1
LOOKUP_TABLE default
   0.100000E-11
   0.100000E-11
   0.100000E-11
   0.100000E-11
TENSORS stress float
   0.718754E-01   0.137332E+05   0.000000E+00
   0.137332E+05   0.300503E+04   0.000000E+00
   0.000000E+00   0.000000E+00   0.000000E+00
   0.000000E+00   0.334600E+05   0.000000E+00
   0.334600E+05   0.299241E+04   0.000000E+00
   0.000000E+00   0.000000E+00   0.000000E+00
   0.718754E-01   0.529674E+06   0.000000E+00
   0.529674E+06   0.327438E+04   0.000000E+00
   0.000000E+00   0.000000E+00   0.000000E+00
   0.000000E+00   0.605361E+06   0.000000E+00
   0.605361E+06   0.327013E+04   0.000000E+00
   0.000000E+00   0.000000E+00   0.000000E+00
