# vtk DataFile Version 3.0
Particle data
ASCII
DATASET POLYDATA
POINTS 4 float
   0.602132E+00   0.195763E+01   0.000000E+00
   0.657071E+00   0.195763E+01   0.000000E+00
   0.602132E+00   0.191851E+01   0.000000E+00
   0.657071E+00   0.191851E+01   0.000000E+00
POINT_DATA 4
VECTORS velocity float
   0.690251-309   0.690251-309   0.000000E+00
   0.000000E+00   0.000000E+00   0.000000E+00
   0.170000E+01   0.180000E+01   0.000000E+00
   0.190000E+01   0.200000E+01   0.000000E+00
SCALARS volume float 1
LOOKUP_TABLE default
   0.100000E-11
   0.100000E-11
   0.100000E-11
   0.100000E-11
TENSORS stress float
   0.704454E+01   0.000000E+00   0.000000E+00
   0.000000E+00   0.164849E+04   0.000000E+00
   0.000000E+00   0.000000E+00   0.000000E+00
   0.637087E+01   0.113651E+05   0.000000E+00
   0.113651E+05   0.165609E+04   0.000000E+00
   0.000000E+00   0.000000E+00   0.000000E+00
   0.704454E+01   0.595698E+04   0.000000E+00
   0.595698E+04   0.192029E+04   0.000000E+00
   0.000000E+00   0.000000E+00   0.000000E+00
   0.637087E+01   0.272064E+05   0.000000E+00
   0.272064E+05   0.193627E+04   0.000000E+00
   0.000000E+00   0.000000E+00   0.000000E+00
