# vtk DataFile Version 3.0
Particle data
ASCII
DATASET POLYDATA
POINTS 4 float
   0.533596E+00   0.196888E+01   0.000000E+00
   0.588230E+00   0.196888E+01   0.000000E+00
   0.533596E+00   0.192991E+01   0.000000E+00
   0.588230E+00   0.192991E+01   0.000000E+00
POINT_DATA 4
VECTORS velocity float
   0.690251-309   0.690251-309   0.000000E+00
   0.000000E+00   0.000000E+00   0.000000E+00
   0.170000E+01   0.180000E+01   0.000000E+00
   0.190000E+01   0.200000E+01   0.000000E+00
SCALARS volume float 1
LOOKUP_TABLE default
   0.100000E-11
   0.100000E-11
   0.100000E-11
   0.100000E-11
TENSORS stress float
   0.115396E+02   0.817664E+03   0.000000E+00
   0.817664E+03   0.978091E+03   0.000000E+00
   0.000000E+00   0.000000E+00   0.000000E+00
   0.107294E+02   0.888200E+04   0.000000E+00
   0.888200E+04   0.985692E+03   0.000000E+00
   0.000000E+00   0.000000E+00   0.000000E+00
   0.115396E+02   0.124237E+05   0.000000E+00
   0.124237E+05   0.124989E+04   0.000000E+00
   0.000000E+00   0.000000E+00   0.000000E+00
   0.107294E+02   0.247233E+05   0.000000E+00
   0.247233E+05   0.126587E+04   0.000000E+00
   0.000000E+00   0.000000E+00   0.000000E+00
