# vtk DataFile Version 3.0
Particle data
ASCII
DATASET POLYDATA
POINTS 4 float
   0.308064E+01   0.188383E+01   0.000000E+00
   0.312710E+01   0.188383E+01   0.000000E+00
   0.308064E+01   0.184467E+01   0.000000E+00
   0.312710E+01   0.184467E+01   0.000000E+00
POINT_DATA 4
VECTORS velocity float
   0.690251-309   0.690251-309   0.000000E+00
   0.000000E+00   0.000000E+00   0.000000E+00
   0.170000E+01   0.180000E+01   0.000000E+00
   0.190000E+01   0.200000E+01   0.000000E+00
SCALARS volume float 1
LOOKUP_TABLE default
   0.100000E-11
   0.100000E-11
   0.100000E-11
   0.100000E-11
TENSORS stress float
   0.000000E+00   0.129016E+05   0.000000E+00
   0.129016E+05   0.285920E+04   0.000000E+00
   0.000000E+00   0.000000E+00   0.000000E+00
   0.000000E+00   0.282885E+05   0.000000E+00
   0.282885E+05   0.284662E+04   0.000000E+00
   0.000000E+00   0.000000E+00   0.000000E+00
   0.000000E+00   0.528843E+06   0.000000E+00
   0.528843E+06   0.312855E+04   0.000000E+00
   0.000000E+00   0.000000E+00   0.000000E+00
   0.000000E+00   0.600190E+06   0.000000E+00
   0.600190E+06   0.312434E+04   0.000000E+00
   0.000000E+00   0.000000E+00   0.000000E+00
