# vtk DataFile Version 3.0
Particle data
ASCII
DATASET POLYDATA
POINTS 4 float
   0.274417E+01   0.189795E+01   0.000000E+00
   0.279135E+01   0.189795E+01   0.000000E+00
   0.274417E+01   0.185821E+01   0.000000E+00
   0.279135E+01   0.185821E+01   0.000000E+00
POINT_DATA 4
VECTORS velocity float
   0.690251-309   0.690251-309   0.000000E+00
   0.000000E+00   0.000000E+00   0.000000E+00
   0.170000E+01   0.180000E+01   0.000000E+00
   0.190000E+01   0.200000E+01   0.000000E+00
SCALARS volume float 1
LOOKUP_TABLE default
   0.100000E-11
   0.100000E-11
   0.100000E-11
   0.100000E-11
TENSORS stress float
   0.000000E+00   0.284836E+04   0.000000E+00
   0.284836E+04   0.241296E+04   0.000000E+00
   0.000000E+00   0.000000E+00   0.000000E+00
   0.000000E+00   0.374473E+04   0.000000E+00
   0.374473E+04   0.240031E+04   0.000000E+00
   0.000000E+00   0.000000E+00   0.000000E+00
   0.000000E+00   0.518789E+06   0.000000E+00
   0.518789E+06   0.268231E+04   0.000000E+00
   0.000000E+00   0.000000E+00   0.000000E+00
   0.000000E+00   0.575646E+06   0.000000E+00
   0.575646E+06   0.267804E+04   0.000000E+00
   0.000000E+00   0.000000E+00   0.000000E+00
