# vtk DataFile Version 3.0
Particle data
ASCII
DATASET POLYDATA
POINTS 4 float
   0.677942E+00   0.194870E+01   0.000000E+00
   0.731912E+00   0.194870E+01   0.000000E+00
   0.677942E+00   0.190940E+01   0.000000E+00
   0.731912E+00   0.190940E+01   0.000000E+00
POINT_DATA 4
VECTORS velocity float
   0.690251-309   0.690251-309   0.000000E+00
   0.000000E+00   0.000000E+00   0.000000E+00
   0.170000E+01   0.180000E+01   0.000000E+00
   0.190000E+01   0.200000E+01   0.000000E+00
SCALARS volume float 1
LOOKUP_TABLE default
   0.100000E-11
   0.100000E-11
   0.100000E-11
   0.100000E-11
TENSORS stress float
   0.000000E+00   0.000000E+00   0.000000E+00
   0.000000E+00   0.190478E+04   0.000000E+00
   0.000000E+00   0.000000E+00   0.000000E+00
   0.278971E+01   0.119879E+05   0.000000E+00
   0.119879E+05   0.191252E+04   0.000000E+00
   0.000000E+00   0.000000E+00   0.000000E+00
   0.000000E+00   0.266446E+04   0.000000E+00
   0.266446E+04   0.217658E+04   0.000000E+00
   0.000000E+00   0.000000E+00   0.000000E+00
   0.278971E+01   0.278292E+05   0.000000E+00
   0.278292E+05   0.219270E+04   0.000000E+00
   0.000000E+00   0.000000E+00   0.000000E+00
