# vtk DataFile Version 3.0
Particle data
ASCII
DATASET POLYDATA
POINTS 4 float
   0.274811E+01   0.189782E+01   0.000000E+00
   0.279529E+01   0.189782E+01   0.000000E+00
   0.274811E+01   0.185808E+01   0.000000E+00
   0.279529E+01   0.185808E+01   0.000000E+00
POINT_DATA 4
VECTORS velocity float
   0.690251-309   0.690251-309   0.000000E+00
   0.000000E+00   0.000000E+00   0.000000E+00
   0.170000E+01   0.180000E+01   0.000000E+00
   0.190000E+01   0.200000E+01   0.000000E+00
SCALARS volume float 1
LOOKUP_TABLE default
   0.100000E-11
   0.100000E-11
   0.100000E-11
   0.100000E-11
TENSORS stress float
   0.000000E+00   0.305323E+04   0.000000E+00
   0.305323E+04   0.241355E+04   0.000000E+00
   0.000000E+00   0.000000E+00   0.000000E+00
   0.000000E+00   0.394959E+04   0.000000E+00
   0.394959E+04   0.240091E+04   0.000000E+00
   0.000000E+00   0.000000E+00   0.000000E+00
   0.000000E+00   0.518994E+06   0.000000E+00
   0.518994E+06   0.268290E+04   0.000000E+00
   0.000000E+00   0.000000E+00   0.000000E+00
   0.000000E+00   0.575851E+06   0.000000E+00
   0.575851E+06   0.267863E+04   0.000000E+00
   0.000000E+00   0.000000E+00   0.000000E+00
