# vtk DataFile Version 3.0
Particle data
ASCII
DATASET POLYDATA
POINTS 4 float
   0.317543E+01   0.187994E+01   0.000000E+00
   0.322202E+01   0.187994E+01   0.000000E+00
   0.317543E+01   0.184086E+01   0.000000E+00
   0.322202E+01   0.184086E+01   0.000000E+00
POINT_DATA 4
VECTORS velocity float
   0.690251-309   0.690251-309   0.000000E+00
   0.000000E+00   0.000000E+00   0.000000E+00
   0.170000E+01   0.180000E+01   0.000000E+00
   0.190000E+01   0.200000E+01   0.000000E+00
SCALARS volume float 1
LOOKUP_TABLE default
   0.100000E-11
   0.100000E-11
   0.100000E-11
   0.100000E-11
TENSORS stress float
   0.000000E+00   0.143219E+05   0.000000E+00
   0.143219E+05   0.295654E+04   0.000000E+00
   0.000000E+00   0.000000E+00   0.000000E+00
   0.000000E+00   0.324947E+05   0.000000E+00
   0.324947E+05   0.294396E+04   0.000000E+00
   0.000000E+00   0.000000E+00   0.000000E+00
   0.000000E+00   0.530263E+06   0.000000E+00
   0.530263E+06   0.322589E+04   0.000000E+00
   0.000000E+00   0.000000E+00   0.000000E+00
   0.000000E+00   0.604396E+06   0.000000E+00
   0.604396E+06   0.322169E+04   0.000000E+00
   0.000000E+00   0.000000E+00   0.000000E+00
