# vtk DataFile Version 3.0
Particle data
ASCII
DATASET POLYDATA
POINTS 4 float
   0.914289E+00   0.193259E+01   0.000000E+00
   0.959403E+00   0.193259E+01   0.000000E+00
   0.914289E+00   0.189248E+01   0.000000E+00
   0.959403E+00   0.189248E+01   0.000000E+00
POINT_DATA 4
VECTORS velocity float
   0.690251-309   0.690251-309   0.000000E+00
   0.000000E+00   0.000000E+00   0.000000E+00
   0.170000E+01   0.180000E+01   0.000000E+00
   0.190000E+01   0.200000E+01   0.000000E+00
SCALARS volume float 1
LOOKUP_TABLE default
   0.100000E-11
   0.100000E-11
   0.100000E-11
   0.100000E-11
TENSORS stress float
   0.000000E+00   0.000000E+00   0.000000E+00
   0.000000E+00   0.238788E+04   0.000000E+00
   0.000000E+00   0.000000E+00   0.000000E+00
   0.000000E+00   0.140252E+04   0.000000E+00
   0.140252E+04   0.238899E+04   0.000000E+00
   0.000000E+00   0.000000E+00   0.000000E+00
   0.000000E+00   0.416889E+06   0.000000E+00
   0.416889E+06   0.262475E+04   0.000000E+00
   0.000000E+00   0.000000E+00   0.000000E+00
   0.000000E+00   0.446212E+06   0.000000E+00
   0.446212E+06   0.263423E+04   0.000000E+00
   0.000000E+00   0.000000E+00   0.000000E+00
