# vtk DataFile Version 3.0
Particle data
ASCII
DATASET POLYDATA
POINTS 4 float
   0.325387E+01   0.187684E+01   0.000000E+00
   0.330111E+01   0.187684E+01   0.000000E+00
   0.325387E+01   0.183778E+01   0.000000E+00
   0.330111E+01   0.183778E+01   0.000000E+00
POINT_DATA 4
VECTORS velocity float
   0.690251-309   0.690251-309   0.000000E+00
   0.000000E+00   0.000000E+00   0.000000E+00
   0.170000E+01   0.180000E+01   0.000000E+00
   0.190000E+01   0.200000E+01   0.000000E+00
SCALARS volume float 1
LOOKUP_TABLE default
   0.100000E-11
   0.100000E-11
   0.100000E-11
   0.100000E-11
TENSORS stress float
   0.000000E+00   0.145692E+05   0.000000E+00
   0.145692E+05   0.301633E+04   0.000000E+00
   0.000000E+00   0.000000E+00   0.000000E+00
   0.000000E+00   0.342961E+05   0.000000E+00
   0.342961E+05   0.300370E+04   0.000000E+00
   0.000000E+00   0.000000E+00   0.000000E+00
   0.000000E+00   0.530510E+06   0.000000E+00
   0.530510E+06   0.328568E+04   0.000000E+00
   0.000000E+00   0.000000E+00   0.000000E+00
   0.000000E+00   0.606197E+06   0.000000E+00
   0.606197E+06   0.328143E+04   0.000000E+00
   0.000000E+00   0.000000E+00   0.000000E+00
