# vtk DataFile Version 3.0
Particle data
ASCII
DATASET POLYDATA
POINTS 4 float
   0.300582E+01   0.188689E+01   0.000000E+00
   0.305310E+01   0.188689E+01   0.000000E+00
   0.300582E+01   0.184767E+01   0.000000E+00
   0.305310E+01   0.184767E+01   0.000000E+00
POINT_DATA 4
VECTORS velocity float
   0.690251-309   0.690251-309   0.000000E+00
   0.000000E+00   0.000000E+00   0.000000E+00
   0.170000E+01   0.180000E+01   0.000000E+00
   0.190000E+01   0.200000E+01   0.000000E+00
SCALARS volume float 1
LOOKUP_TABLE default
   0.100000E-11
   0.100000E-11
   0.100000E-11
   0.100000E-11
TENSORS stress float
   0.228595E+01   0.104476E+05   0.000000E+00
   0.104476E+05   0.279091E+04   0.000000E+00
   0.000000E+00   0.000000E+00   0.000000E+00
   0.205642E+01   0.239177E+05   0.000000E+00
   0.239177E+05   0.277828E+04   0.000000E+00
   0.000000E+00   0.000000E+00   0.000000E+00
   0.228595E+01   0.526388E+06   0.000000E+00
   0.526388E+06   0.306026E+04   0.000000E+00
   0.000000E+00   0.000000E+00   0.000000E+00
   0.205642E+01   0.595819E+06   0.000000E+00
   0.595819E+06   0.305600E+04   0.000000E+00
   0.000000E+00   0.000000E+00   0.000000E+00
