# vtk DataFile Version 3.0
Particle data
ASCII
DATASET POLYDATA
POINTS 4 float
   0.833663E+00   0.193611E+01   0.000000E+00
   0.889217E+00   0.193611E+01   0.000000E+00
   0.833663E+00   0.189614E+01   0.000000E+00
   0.889217E+00   0.189614E+01   0.000000E+00
POINT_DATA 4
VECTORS velocity float
   0.690251-309   0.690251-309   0.000000E+00
   0.000000E+00   0.000000E+00   0.000000E+00
   0.170000E+01   0.180000E+01   0.000000E+00
   0.190000E+01   0.200000E+01   0.000000E+00
SCALARS volume float 1
LOOKUP_TABLE default
   0.100000E-11
   0.100000E-11
   0.100000E-11
   0.100000E-11
TENSORS stress float
   0.000000E+00   0.000000E+00   0.000000E+00
   0.000000E+00   0.235020E+04   0.000000E+00
   0.000000E+00   0.000000E+00   0.000000E+00
   0.000000E+00   0.355866E+04   0.000000E+00
   0.355866E+04   0.235069E+04   0.000000E+00
   0.000000E+00   0.000000E+00   0.000000E+00
   0.000000E+00   0.379062E+06   0.000000E+00
   0.379062E+06   0.260016E+04   0.000000E+00
   0.000000E+00   0.000000E+00   0.000000E+00
   0.000000E+00   0.405007E+06   0.000000E+00
   0.405007E+06   0.260902E+04   0.000000E+00
   0.000000E+00   0.000000E+00   0.000000E+00
