# vtk DataFile Version 3.0
Particle data
ASCII
DATASET POLYDATA
POINTS 4 float
   0.295073E+01   0.188949E+01   0.000000E+00
   0.299799E+01   0.188949E+01   0.000000E+00
   0.295073E+01   0.185015E+01   0.000000E+00
   0.299799E+01   0.185015E+01   0.000000E+00
POINT_DATA 4
VECTORS velocity float
   0.690251-309   0.690251-309   0.000000E+00
   0.000000E+00   0.000000E+00   0.000000E+00
   0.170000E+01   0.180000E+01   0.000000E+00
   0.190000E+01   0.200000E+01   0.000000E+00
SCALARS volume float 1
LOOKUP_TABLE default
   0.100000E-11
   0.100000E-11
   0.100000E-11
   0.100000E-11
TENSORS stress float
   0.000000E+00   0.122859E+05   0.000000E+00
   0.122859E+05   0.258930E+04   0.000000E+00
   0.000000E+00   0.000000E+00   0.000000E+00
   0.000000E+00   0.188020E+05   0.000000E+00
   0.188020E+05   0.257666E+04   0.000000E+00
   0.000000E+00   0.000000E+00   0.000000E+00
   0.000000E+00   0.528227E+06   0.000000E+00
   0.528227E+06   0.285865E+04   0.000000E+00
   0.000000E+00   0.000000E+00   0.000000E+00
   0.000000E+00   0.590703E+06   0.000000E+00
   0.590703E+06   0.285438E+04   0.000000E+00
   0.000000E+00   0.000000E+00   0.000000E+00
