# vtk DataFile Version 3.0
Particle data
ASCII
DATASET POLYDATA
POINTS 4 float
   0.584227E+00   0.196021E+01   0.000000E+00
   0.638472E+00   0.196021E+01   0.000000E+00
   0.584227E+00   0.192120E+01   0.000000E+00
   0.638472E+00   0.192120E+01   0.000000E+00
POINT_DATA 4
VECTORS velocity float
   0.690251-309   0.690251-309   0.000000E+00
   0.000000E+00   0.000000E+00   0.000000E+00
   0.170000E+01   0.180000E+01   0.000000E+00
   0.190000E+01   0.200000E+01   0.000000E+00
SCALARS volume float 1
LOOKUP_TABLE default
   0.100000E-11
   0.100000E-11
   0.100000E-11
   0.100000E-11
TENSORS stress float
   0.000000E+00   0.000000E+00   0.000000E+00
   0.000000E+00   0.132025E+04   0.000000E+00
   0.000000E+00   0.000000E+00   0.000000E+00
   0.000000E+00   0.117945E+05   0.000000E+00
   0.117945E+05   0.132799E+04   0.000000E+00
   0.000000E+00   0.000000E+00   0.000000E+00
   0.000000E+00   0.112348E+05   0.000000E+00
   0.112348E+05   0.159205E+04   0.000000E+00
   0.000000E+00   0.000000E+00   0.000000E+00
   0.000000E+00   0.276358E+05   0.000000E+00
   0.276358E+05   0.160816E+04   0.000000E+00
   0.000000E+00   0.000000E+00   0.000000E+00
