# vtk DataFile Version 3.0
Particle data
ASCII
DATASET POLYDATA
POINTS 4 float
   0.552657E+00   0.196619E+01   0.000000E+00
   0.607058E+00   0.196619E+01   0.000000E+00
   0.552657E+00   0.192723E+01   0.000000E+00
   0.607058E+00   0.192723E+01   0.000000E+00
POINT_DATA 4
VECTORS velocity float
   0.690251-309   0.690251-309   0.000000E+00
   0.000000E+00   0.000000E+00   0.000000E+00
   0.170000E+01   0.180000E+01   0.000000E+00
   0.190000E+01   0.200000E+01   0.000000E+00
SCALARS volume float 1
LOOKUP_TABLE default
   0.100000E-11
   0.100000E-11
   0.100000E-11
   0.100000E-11
TENSORS stress float
   0.150002E+02   0.635561E+03   0.000000E+00
   0.635561E+03   0.121299E+04   0.000000E+00
   0.000000E+00   0.000000E+00   0.000000E+00
   0.159789E+02   0.116082E+05   0.000000E+00
   0.116082E+05   0.122065E+04   0.000000E+00
   0.000000E+00   0.000000E+00   0.000000E+00
   0.150002E+02   0.122416E+05   0.000000E+00
   0.122416E+05   0.148480E+04   0.000000E+00
   0.000000E+00   0.000000E+00   0.000000E+00
   0.159789E+02   0.274495E+05   0.000000E+00
   0.274495E+05   0.150082E+04   0.000000E+00
   0.000000E+00   0.000000E+00   0.000000E+00
