# vtk DataFile Version 3.0
Particle data
ASCII
DATASET POLYDATA
POINTS 4 float
   0.310125E+01   0.188284E+01   0.000000E+00
   0.314850E+01   0.188284E+01   0.000000E+00
   0.310125E+01   0.184373E+01   0.000000E+00
   0.314850E+01   0.184373E+01   0.000000E+00
POINT_DATA 4
VECTORS velocity float
   0.690251-309   0.690251-309   0.000000E+00
   0.000000E+00   0.000000E+00   0.000000E+00
   0.170000E+01   0.180000E+01   0.000000E+00
   0.190000E+01   0.200000E+01   0.000000E+00
SCALARS volume float 1
LOOKUP_TABLE default
   0.100000E-11
   0.100000E-11
   0.100000E-11
   0.100000E-11
TENSORS stress float
   0.401924E-02   0.125416E+05   0.000000E+00
   0.125416E+05   0.290117E+04   0.000000E+00
   0.000000E+00   0.000000E+00   0.000000E+00
   0.000000E+00   0.292863E+05   0.000000E+00
   0.292863E+05   0.288854E+04   0.000000E+00
   0.000000E+00   0.000000E+00   0.000000E+00
   0.401924E-02   0.528482E+06   0.000000E+00
   0.528482E+06   0.317052E+04   0.000000E+00
   0.000000E+00   0.000000E+00   0.000000E+00
   0.000000E+00   0.601188E+06   0.000000E+00
   0.601188E+06   0.316627E+04   0.000000E+00
   0.000000E+00   0.000000E+00   0.000000E+00
