# vtk DataFile Version 3.0
Particle data
ASCII
DATASET POLYDATA
POINTS 4 float
   0.632905E+00   0.195417E+01   0.000000E+00
   0.687822E+00   0.195417E+01   0.000000E+00
   0.632905E+00   0.191505E+01   0.000000E+00
   0.687822E+00   0.191505E+01   0.000000E+00
POINT_DATA 4
VECTORS velocity float
   0.690251-309   0.690251-309   0.000000E+00
   0.000000E+00   0.000000E+00   0.000000E+00
   0.170000E+01   0.180000E+01   0.000000E+00
   0.190000E+01   0.200000E+01   0.000000E+00
SCALARS volume float 1
LOOKUP_TABLE default
   0.100000E-11
   0.100000E-11
   0.100000E-11
   0.100000E-11
TENSORS stress float
   0.116575E+02   0.000000E+00   0.000000E+00
   0.000000E+00   0.166732E+04   0.000000E+00
   0.000000E+00   0.000000E+00   0.000000E+00
   0.109838E+02   0.105828E+05   0.000000E+00
   0.105828E+05   0.167493E+04   0.000000E+00
   0.000000E+00   0.000000E+00   0.000000E+00
   0.116575E+02   0.517474E+04   0.000000E+00
   0.517474E+04   0.193912E+04   0.000000E+00
   0.000000E+00   0.000000E+00   0.000000E+00
   0.109838E+02   0.264241E+05   0.000000E+00
   0.264241E+05   0.195510E+04   0.000000E+00
   0.000000E+00   0.000000E+00   0.000000E+00
