# vtk DataFile Version 3.0
Particle data
ASCII
DATASET POLYDATA
POINTS 4 float
   0.622208E+00   0.195534E+01   0.000000E+00
   0.677136E+00   0.195534E+01   0.000000E+00
   0.622208E+00   0.191622E+01   0.000000E+00
   0.677136E+00   0.191622E+01   0.000000E+00
POINT_DATA 4
VECTORS velocity float
   0.690251-309   0.690251-309   0.000000E+00
   0.000000E+00   0.000000E+00   0.000000E+00
   0.170000E+01   0.180000E+01   0.000000E+00
   0.190000E+01   0.200000E+01   0.000000E+00
SCALARS volume float 1
LOOKUP_TABLE default
   0.100000E-11
   0.100000E-11
   0.100000E-11
   0.100000E-11
TENSORS stress float
   0.936413E+01   0.000000E+00   0.000000E+00
   0.000000E+00   0.166124E+04   0.000000E+00
   0.000000E+00   0.000000E+00   0.000000E+00
   0.869047E+01   0.108999E+05   0.000000E+00
   0.108999E+05   0.166885E+04   0.000000E+00
   0.000000E+00   0.000000E+00   0.000000E+00
   0.936413E+01   0.549181E+04   0.000000E+00
   0.549181E+04   0.193304E+04   0.000000E+00
   0.000000E+00   0.000000E+00   0.000000E+00
   0.869047E+01   0.267412E+05   0.000000E+00
   0.267412E+05   0.194902E+04   0.000000E+00
   0.000000E+00   0.000000E+00   0.000000E+00
