# vtk DataFile Version 3.0
Particle data
ASCII
DATASET POLYDATA
POINTS 4 float
   0.310482E+01   0.188271E+01   0.000000E+00
   0.315208E+01   0.188271E+01   0.000000E+00
   0.310482E+01   0.184360E+01   0.000000E+00
   0.315208E+01   0.184360E+01   0.000000E+00
POINT_DATA 4
VECTORS velocity float
   0.690251-309   0.690251-309   0.000000E+00
   0.000000E+00   0.000000E+00   0.000000E+00
   0.170000E+01   0.180000E+01   0.000000E+00
   0.190000E+01   0.200000E+01   0.000000E+00
SCALARS volume float 1
LOOKUP_TABLE default
   0.100000E-11
   0.100000E-11
   0.100000E-11
   0.100000E-11
TENSORS stress float
   0.000000E+00   0.126489E+05   0.000000E+00
   0.126489E+05   0.290205E+04   0.000000E+00
   0.000000E+00   0.000000E+00   0.000000E+00
   0.000000E+00   0.293935E+05   0.000000E+00
   0.293935E+05   0.288943E+04   0.000000E+00
   0.000000E+00   0.000000E+00   0.000000E+00
   0.000000E+00   0.528590E+06   0.000000E+00
   0.528590E+06   0.317140E+04   0.000000E+00
   0.000000E+00   0.000000E+00   0.000000E+00
   0.000000E+00   0.601295E+06   0.000000E+00
   0.601295E+06   0.316715E+04   0.000000E+00
   0.000000E+00   0.000000E+00   0.000000E+00
