# vtk DataFile Version 3.0
Particle data
ASCII
DATASET POLYDATA
POINTS 4 float
   0.294113E+01   0.188983E+01   0.000000E+00
   0.298839E+01   0.188983E+01   0.000000E+00
   0.294113E+01   0.185049E+01   0.000000E+00
   0.298839E+01   0.185049E+01   0.000000E+00
POINT_DATA 4
VECTORS velocity float
   0.690251-309   0.690251-309   0.000000E+00
   0.000000E+00   0.000000E+00   0.000000E+00
   0.170000E+01   0.180000E+01   0.000000E+00
   0.190000E+01   0.200000E+01   0.000000E+00
SCALARS volume float 1
LOOKUP_TABLE default
   0.100000E-11
   0.100000E-11
   0.100000E-11
   0.100000E-11
TENSORS stress float
   0.000000E+00   0.119409E+05   0.000000E+00
   0.119409E+05   0.258731E+04   0.000000E+00
   0.000000E+00   0.000000E+00   0.000000E+00
   0.000000E+00   0.184570E+05   0.000000E+00
   0.184570E+05   0.257468E+04   0.000000E+00
   0.000000E+00   0.000000E+00   0.000000E+00
   0.000000E+00   0.527882E+06   0.000000E+00
   0.527882E+06   0.285666E+04   0.000000E+00
   0.000000E+00   0.000000E+00   0.000000E+00
   0.000000E+00   0.590358E+06   0.000000E+00
   0.590358E+06   0.285240E+04   0.000000E+00
   0.000000E+00   0.000000E+00   0.000000E+00
