# vtk DataFile Version 3.0
Particle data
ASCII
DATASET POLYDATA
POINTS 4 float
   0.913393E+00   0.193263E+01   0.000000E+00
   0.958505E+00   0.193263E+01   0.000000E+00
   0.913393E+00   0.189252E+01   0.000000E+00
   0.958505E+00   0.189252E+01   0.000000E+00
POINT_DATA 4
VECTORS velocity float
   0.690251-309   0.690251-309   0.000000E+00
   0.000000E+00   0.000000E+00   0.000000E+00
   0.170000E+01   0.180000E+01   0.000000E+00
   0.190000E+01   0.200000E+01   0.000000E+00
SCALARS volume float 1
LOOKUP_TABLE default
   0.100000E-11
   0.100000E-11
   0.100000E-11
   0.100000E-11
TENSORS stress float
   0.000000E+00   0.000000E+00   0.000000E+00
   0.000000E+00   0.238785E+04   0.000000E+00
   0.000000E+00   0.000000E+00   0.000000E+00
   0.000000E+00   0.145781E+04   0.000000E+00
   0.145781E+04   0.238896E+04   0.000000E+00
   0.000000E+00   0.000000E+00   0.000000E+00
   0.000000E+00   0.416586E+06   0.000000E+00
   0.416586E+06   0.262474E+04   0.000000E+00
   0.000000E+00   0.000000E+00   0.000000E+00
   0.000000E+00   0.445909E+06   0.000000E+00
   0.445909E+06   0.263422E+04   0.000000E+00
   0.000000E+00   0.000000E+00   0.000000E+00
