# vtk DataFile Version 3.0
Particle data
ASCII
DATASET POLYDATA
POINTS 4 float
   0.596730E+00   0.195828E+01   0.000000E+00
   0.651597E+00   0.195828E+01   0.000000E+00
   0.596730E+00   0.191916E+01   0.000000E+00
   0.651597E+00   0.191916E+01   0.000000E+00
POINT_DATA 4
VECTORS velocity float
   0.690251-309   0.690251-309   0.000000E+00
   0.000000E+00   0.000000E+00   0.000000E+00
   0.170000E+01   0.180000E+01   0.000000E+00
   0.190000E+01   0.200000E+01   0.000000E+00
SCALARS volume float 1
LOOKUP_TABLE default
   0.100000E-11
   0.100000E-11
   0.100000E-11
   0.100000E-11
TENSORS stress float
   0.246040E-01   0.000000E+00   0.000000E+00
   0.000000E+00   0.138464E+04   0.000000E+00
   0.000000E+00   0.000000E+00   0.000000E+00
   0.000000E+00   0.114985E+05   0.000000E+00
   0.114985E+05   0.139227E+04   0.000000E+00
   0.000000E+00   0.000000E+00   0.000000E+00
   0.246040E-01   0.100998E+05   0.000000E+00
   0.100998E+05   0.165645E+04   0.000000E+00
   0.000000E+00   0.000000E+00   0.000000E+00
   0.000000E+00   0.273398E+05   0.000000E+00
   0.273398E+05   0.167245E+04   0.000000E+00
   0.000000E+00   0.000000E+00   0.000000E+00
