# vtk DataFile Version 3.0
Particle data
ASCII
DATASET POLYDATA
POINTS 4 float
   0.318981E+01   0.187916E+01   0.000000E+00
   0.323650E+01   0.187916E+01   0.000000E+00
   0.318981E+01   0.184009E+01   0.000000E+00
   0.323650E+01   0.184009E+01   0.000000E+00
POINT_DATA 4
VECTORS velocity float
   0.690251-309   0.690251-309   0.000000E+00
   0.000000E+00   0.000000E+00   0.000000E+00
   0.170000E+01   0.180000E+01   0.000000E+00
   0.190000E+01   0.200000E+01   0.000000E+00
SCALARS volume float 1
LOOKUP_TABLE default
   0.100000E-11
   0.100000E-11
   0.100000E-11
   0.100000E-11
TENSORS stress float
   0.000000E+00   0.144802E+05   0.000000E+00
   0.144802E+05   0.297075E+04   0.000000E+00
   0.000000E+00   0.000000E+00   0.000000E+00
   0.000000E+00   0.330653E+05   0.000000E+00
   0.330653E+05   0.295815E+04   0.000000E+00
   0.000000E+00   0.000000E+00   0.000000E+00
   0.000000E+00   0.530421E+06   0.000000E+00
   0.530421E+06   0.324010E+04   0.000000E+00
   0.000000E+00   0.000000E+00   0.000000E+00
   0.000000E+00   0.604967E+06   0.000000E+00
   0.604967E+06   0.323588E+04   0.000000E+00
   0.000000E+00   0.000000E+00   0.000000E+00
