# vtk DataFile Version 3.0
Particle data
ASCII
DATASET POLYDATA
POINTS 4 float
   0.278590E+01   0.189608E+01   0.000000E+00
   0.283216E+01   0.189608E+01   0.000000E+00
   0.278590E+01   0.185651E+01   0.000000E+00
   0.283216E+01   0.185651E+01   0.000000E+00
POINT_DATA 4
VECTORS velocity float
   0.690251-309   0.690251-309   0.000000E+00
   0.000000E+00   0.000000E+00   0.000000E+00
   0.170000E+01   0.180000E+01   0.000000E+00
   0.190000E+01   0.200000E+01   0.000000E+00
SCALARS volume float 1
LOOKUP_TABLE default
   0.100000E-11
   0.100000E-11
   0.100000E-11
   0.100000E-11
TENSORS stress float
   0.000000E+00   0.568556E+04   0.000000E+00
   0.568556E+04   0.246394E+04   0.000000E+00
   0.000000E+00   0.000000E+00   0.000000E+00
   0.000000E+00   0.846271E+04   0.000000E+00
   0.846271E+04   0.245135E+04   0.000000E+00
   0.000000E+00   0.000000E+00   0.000000E+00
   0.000000E+00   0.521626E+06   0.000000E+00
   0.521626E+06   0.273329E+04   0.000000E+00
   0.000000E+00   0.000000E+00   0.000000E+00
   0.000000E+00   0.580364E+06   0.000000E+00
   0.580364E+06   0.272907E+04   0.000000E+00
   0.000000E+00   0.000000E+00   0.000000E+00
