# vtk DataFile Version 3.0
Particle data
ASCII
DATASET POLYDATA
POINTS 4 float
   0.922425E+00   0.193220E+01   0.000000E+00
   0.967546E+00   0.193220E+01   0.000000E+00
   0.922425E+00   0.189212E+01   0.000000E+00
   0.967546E+00   0.189212E+01   0.000000E+00
POINT_DATA 4
VECTORS velocity float
   0.690251-309   0.690251-309   0.000000E+00
   0.000000E+00   0.000000E+00   0.000000E+00
   0.170000E+01   0.180000E+01   0.000000E+00
   0.190000E+01   0.200000E+01   0.000000E+00
SCALARS volume float 1
LOOKUP_TABLE default
   0.100000E-11
   0.100000E-11
   0.100000E-11
   0.100000E-11
TENSORS stress float
   0.000000E+00   0.000000E+00   0.000000E+00
   0.000000E+00   0.238813E+04   0.000000E+00
   0.000000E+00   0.000000E+00   0.000000E+00
   0.000000E+00   0.891872E+03   0.000000E+00
   0.891872E+03   0.238924E+04   0.000000E+00
   0.000000E+00   0.000000E+00   0.000000E+00
   0.000000E+00   0.419545E+06   0.000000E+00
   0.419545E+06   0.262487E+04   0.000000E+00
   0.000000E+00   0.000000E+00   0.000000E+00
   0.000000E+00   0.448867E+06   0.000000E+00
   0.448867E+06   0.263435E+04   0.000000E+00
   0.000000E+00   0.000000E+00   0.000000E+00
