# vtk DataFile Version 3.0
Particle data
ASCII
DATASET POLYDATA
POINTS 4 float
   0.315980E+01   0.188072E+01   0.000000E+00
   0.320686E+01   0.188072E+01   0.000000E+00
   0.315980E+01   0.184161E+01   0.000000E+00
   0.320686E+01   0.184161E+01   0.000000E+00
POINT_DATA 4
VECTORS velocity float
   0.690251-309   0.690251-309   0.000000E+00
   0.000000E+00   0.000000E+00   0.000000E+00
   0.170000E+01   0.180000E+01   0.000000E+00
   0.190000E+01   0.200000E+01   0.000000E+00
SCALARS volume float 1
LOOKUP_TABLE default
   0.100000E-11
   0.100000E-11
   0.100000E-11
   0.100000E-11
TENSORS stress float
   0.000000E+00   0.139606E+05   0.000000E+00
   0.139606E+05   0.293846E+04   0.000000E+00
   0.000000E+00   0.000000E+00   0.000000E+00
   0.000000E+00   0.315911E+05   0.000000E+00
   0.315911E+05   0.292585E+04   0.000000E+00
   0.000000E+00   0.000000E+00   0.000000E+00
   0.000000E+00   0.529901E+06   0.000000E+00
   0.529901E+06   0.320781E+04   0.000000E+00
   0.000000E+00   0.000000E+00   0.000000E+00
   0.000000E+00   0.603492E+06   0.000000E+00
   0.603492E+06   0.320358E+04   0.000000E+00
   0.000000E+00   0.000000E+00   0.000000E+00
