# vtk DataFile Version 3.0
Particle data
ASCII
DATASET POLYDATA
POINTS 4 float
   0.106093E+01   0.192922E+01   0.000000E+00
   0.111649E+01   0.192922E+01   0.000000E+00
   0.106093E+01   0.188919E+01   0.000000E+00
   0.111649E+01   0.188919E+01   0.000000E+00
POINT_DATA 4
VECTORS velocity float
   0.690251-309   0.690251-309   0.000000E+00
   0.000000E+00   0.000000E+00   0.000000E+00
   0.170000E+01   0.180000E+01   0.000000E+00
   0.190000E+01   0.200000E+01   0.000000E+00
SCALARS volume float 1
LOOKUP_TABLE default
   0.100000E-11
   0.100000E-11
   0.100000E-11
   0.100000E-11
TENSORS stress float
   0.000000E+00   0.000000E+00   0.000000E+00
   0.000000E+00   0.239666E+04   0.000000E+00
   0.000000E+00   0.000000E+00   0.000000E+00
   0.000000E+00   0.712942E+03   0.000000E+00
   0.712942E+03   0.239787E+04   0.000000E+00
   0.000000E+00   0.000000E+00   0.000000E+00
   0.000000E+00   0.437491E+06   0.000000E+00
   0.437491E+06   0.263099E+04   0.000000E+00
   0.000000E+00   0.000000E+00   0.000000E+00
   0.000000E+00   0.468867E+06   0.000000E+00
   0.468867E+06   0.264057E+04   0.000000E+00
   0.000000E+00   0.000000E+00   0.000000E+00
