# vtk DataFile Version 3.0
Particle data
ASCII
DATASET POLYDATA
POINTS 4 float
   0.272564E+01   0.189856E+01   0.000000E+00
   0.277282E+01   0.189856E+01   0.000000E+00
   0.272564E+01   0.185882E+01   0.000000E+00
   0.277282E+01   0.185882E+01   0.000000E+00
POINT_DATA 4
VECTORS velocity float
   0.690251-309   0.690251-309   0.000000E+00
   0.000000E+00   0.000000E+00   0.000000E+00
   0.170000E+01   0.180000E+01   0.000000E+00
   0.190000E+01   0.200000E+01   0.000000E+00
SCALARS volume float 1
LOOKUP_TABLE default
   0.100000E-11
   0.100000E-11
   0.100000E-11
   0.100000E-11
TENSORS stress float
   0.000000E+00   0.184307E+04   0.000000E+00
   0.184307E+04   0.241052E+04   0.000000E+00
   0.000000E+00   0.000000E+00   0.000000E+00
   0.000000E+00   0.273944E+04   0.000000E+00
   0.273944E+04   0.239787E+04   0.000000E+00
   0.000000E+00   0.000000E+00   0.000000E+00
   0.000000E+00   0.517784E+06   0.000000E+00
   0.517784E+06   0.267987E+04   0.000000E+00
   0.000000E+00   0.000000E+00   0.000000E+00
   0.000000E+00   0.574641E+06   0.000000E+00
   0.574641E+06   0.267560E+04   0.000000E+00
   0.000000E+00   0.000000E+00   0.000000E+00
