# vtk DataFile Version 3.0
Particle data
ASCII
DATASET POLYDATA
POINTS 4 float
   0.316220E+01   0.188063E+01   0.000000E+00
   0.320909E+01   0.188063E+01   0.000000E+00
   0.316220E+01   0.184152E+01   0.000000E+00
   0.320909E+01   0.184152E+01   0.000000E+00
POINT_DATA 4
VECTORS velocity float
   0.690251-309   0.690251-309   0.000000E+00
   0.000000E+00   0.000000E+00   0.000000E+00
   0.170000E+01   0.180000E+01   0.000000E+00
   0.190000E+01   0.200000E+01   0.000000E+00
SCALARS volume float 1
LOOKUP_TABLE default
   0.100000E-11
   0.100000E-11
   0.100000E-11
   0.100000E-11
TENSORS stress float
   0.000000E+00   0.140230E+05   0.000000E+00
   0.140230E+05   0.294237E+04   0.000000E+00
   0.000000E+00   0.000000E+00   0.000000E+00
   0.000000E+00   0.317771E+05   0.000000E+00
   0.317771E+05   0.292977E+04   0.000000E+00
   0.000000E+00   0.000000E+00   0.000000E+00
   0.000000E+00   0.529964E+06   0.000000E+00
   0.529964E+06   0.321172E+04   0.000000E+00
   0.000000E+00   0.000000E+00   0.000000E+00
   0.000000E+00   0.603678E+06   0.000000E+00
   0.603678E+06   0.320750E+04   0.000000E+00
   0.000000E+00   0.000000E+00   0.000000E+00
