# vtk DataFile Version 3.0
Particle data
ASCII
DATASET POLYDATA
POINTS 4 float
   0.313345E+01   0.188167E+01   0.000000E+00
   0.318071E+01   0.188167E+01   0.000000E+00
   0.313345E+01   0.184256E+01   0.000000E+00
   0.318071E+01   0.184256E+01   0.000000E+00
POINT_DATA 4
VECTORS velocity float
   0.690251-309   0.690251-309   0.000000E+00
   0.000000E+00   0.000000E+00   0.000000E+00
   0.170000E+01   0.180000E+01   0.000000E+00
   0.190000E+01   0.200000E+01   0.000000E+00
SCALARS volume float 1
LOOKUP_TABLE default
   0.100000E-11
   0.100000E-11
   0.100000E-11
   0.100000E-11
TENSORS stress float
   0.202687E+00   0.133879E+05   0.000000E+00
   0.133879E+05   0.290793E+04   0.000000E+00
   0.000000E+00   0.000000E+00   0.000000E+00
   0.202687E+00   0.301325E+05   0.000000E+00
   0.301325E+05   0.289530E+04   0.000000E+00
   0.000000E+00   0.000000E+00   0.000000E+00
   0.202687E+00   0.529329E+06   0.000000E+00
   0.529329E+06   0.317728E+04   0.000000E+00
   0.000000E+00   0.000000E+00   0.000000E+00
   0.202687E+00   0.602034E+06   0.000000E+00
   0.602034E+06   0.317302E+04   0.000000E+00
   0.000000E+00   0.000000E+00   0.000000E+00
