# vtk DataFile Version 3.0
Particle data
ASCII
DATASET POLYDATA
POINTS 4 float
   0.275073E+01   0.189774E+01   0.000000E+00
   0.279792E+01   0.189774E+01   0.000000E+00
   0.275073E+01   0.185799E+01   0.000000E+00
   0.279792E+01   0.185799E+01   0.000000E+00
POINT_DATA 4
VECTORS velocity float
   0.690251-309   0.690251-309   0.000000E+00
   0.000000E+00   0.000000E+00   0.000000E+00
   0.170000E+01   0.180000E+01   0.000000E+00
   0.190000E+01   0.200000E+01   0.000000E+00
SCALARS volume float 1
LOOKUP_TABLE default
   0.100000E-11
   0.100000E-11
   0.100000E-11
   0.100000E-11
TENSORS stress float
   0.000000E+00   0.318732E+04   0.000000E+00
   0.318732E+04   0.241397E+04   0.000000E+00
   0.000000E+00   0.000000E+00   0.000000E+00
   0.000000E+00   0.408368E+04   0.000000E+00
   0.408368E+04   0.240133E+04   0.000000E+00
   0.000000E+00   0.000000E+00   0.000000E+00
   0.000000E+00   0.519128E+06   0.000000E+00
   0.519128E+06   0.268332E+04   0.000000E+00
   0.000000E+00   0.000000E+00   0.000000E+00
   0.000000E+00   0.575985E+06   0.000000E+00
   0.575985E+06   0.267905E+04   0.000000E+00
   0.000000E+00   0.000000E+00   0.000000E+00
