# vtk DataFile Version 3.0
Particle data
ASCII
DATASET POLYDATA
POINTS 4 float
   0.320988E+01   0.187839E+01   0.000000E+00
   0.325710E+01   0.187839E+01   0.000000E+00
   0.320988E+01   0.183934E+01   0.000000E+00
   0.325710E+01   0.183934E+01   0.000000E+00
POINT_DATA 4
VECTORS velocity float
   0.690251-309   0.690251-309   0.000000E+00
   0.000000E+00   0.000000E+00   0.000000E+00
   0.170000E+01   0.180000E+01   0.000000E+00
   0.190000E+01   0.200000E+01   0.000000E+00
SCALARS volume float 1
LOOKUP_TABLE default
   0.100000E-11
   0.100000E-11
   0.100000E-11
   0.100000E-11
TENSORS stress float
   0.000000E+00   0.139138E+05   0.000000E+00
   0.139138E+05   0.300704E+04   0.000000E+00
   0.000000E+00   0.000000E+00   0.000000E+00
   0.000000E+00   0.336406E+05   0.000000E+00
   0.336406E+05   0.299442E+04   0.000000E+00
   0.000000E+00   0.000000E+00   0.000000E+00
   0.000000E+00   0.529855E+06   0.000000E+00
   0.529855E+06   0.327639E+04   0.000000E+00
   0.000000E+00   0.000000E+00   0.000000E+00
   0.000000E+00   0.605542E+06   0.000000E+00
   0.605542E+06   0.327214E+04   0.000000E+00
   0.000000E+00   0.000000E+00   0.000000E+00
