# vtk DataFile Version 3.0
Particle data
ASCII
DATASET POLYDATA
POINTS 4 float
   0.596036E+00   0.195836E+01   0.000000E+00
   0.650874E+00   0.195836E+01   0.000000E+00
   0.596036E+00   0.191925E+01   0.000000E+00
   0.650874E+00   0.191925E+01   0.000000E+00
POINT_DATA 4
VECTORS velocity float
   0.690251-309   0.690251-309   0.000000E+00
   0.000000E+00   0.000000E+00   0.000000E+00
   0.170000E+01   0.180000E+01   0.000000E+00
   0.190000E+01   0.200000E+01   0.000000E+00
SCALARS volume float 1
LOOKUP_TABLE default
   0.100000E-11
   0.100000E-11
   0.100000E-11
   0.100000E-11
TENSORS stress float
   0.000000E+00   0.000000E+00   0.000000E+00
   0.000000E+00   0.137799E+04   0.000000E+00
   0.000000E+00   0.000000E+00   0.000000E+00
   0.000000E+00   0.115177E+05   0.000000E+00
   0.115177E+05   0.138563E+04   0.000000E+00
   0.000000E+00   0.000000E+00   0.000000E+00
   0.000000E+00   0.102133E+05   0.000000E+00
   0.102133E+05   0.164979E+04   0.000000E+00
   0.000000E+00   0.000000E+00   0.000000E+00
   0.000000E+00   0.273590E+05   0.000000E+00
   0.273590E+05   0.166580E+04   0.000000E+00
   0.000000E+00   0.000000E+00   0.000000E+00
