# vtk DataFile Version 3.0
Particle data
ASCII
DATASET POLYDATA
POINTS 4 float
   0.558677E+00   0.196520E+01   0.000000E+00
   0.612810E+00   0.196520E+01   0.000000E+00
   0.558677E+00   0.192620E+01   0.000000E+00
   0.612810E+00   0.192620E+01   0.000000E+00
POINT_DATA 4
VECTORS velocity float
   0.690251-309   0.690251-309   0.000000E+00
   0.000000E+00   0.000000E+00   0.000000E+00
   0.170000E+01   0.180000E+01   0.000000E+00
   0.190000E+01   0.200000E+01   0.000000E+00
SCALARS volume float 1
LOOKUP_TABLE default
   0.100000E-11
   0.100000E-11
   0.100000E-11
   0.100000E-11
TENSORS stress float
   0.113676E+02   0.523024E+03   0.000000E+00
   0.523024E+03   0.124276E+04   0.000000E+00
   0.000000E+00   0.000000E+00   0.000000E+00
   0.140905E+02   0.118405E+05   0.000000E+00
   0.118405E+05   0.125047E+04   0.000000E+00
   0.000000E+00   0.000000E+00   0.000000E+00
   0.113676E+02   0.121291E+05   0.000000E+00
   0.121291E+05   0.151456E+04   0.000000E+00
   0.000000E+00   0.000000E+00   0.000000E+00
   0.140905E+02   0.276818E+05   0.000000E+00
   0.276818E+05   0.153064E+04   0.000000E+00
   0.000000E+00   0.000000E+00   0.000000E+00
