# vtk DataFile Version 3.0
Particle data
ASCII
DATASET POLYDATA
POINTS 4 float
   0.301176E+01   0.188667E+01   0.000000E+00
   0.305905E+01   0.188667E+01   0.000000E+00
   0.301176E+01   0.184746E+01   0.000000E+00
   0.305905E+01   0.184746E+01   0.000000E+00
POINT_DATA 4
VECTORS velocity float
   0.690251-309   0.690251-309   0.000000E+00
   0.000000E+00   0.000000E+00   0.000000E+00
   0.170000E+01   0.180000E+01   0.000000E+00
   0.190000E+01   0.200000E+01   0.000000E+00
SCALARS volume float 1
LOOKUP_TABLE default
   0.100000E-11
   0.100000E-11
   0.100000E-11
   0.100000E-11
TENSORS stress float
   0.187465E+01   0.106629E+05   0.000000E+00
   0.106629E+05   0.279218E+04   0.000000E+00
   0.000000E+00   0.000000E+00   0.000000E+00
   0.164512E+01   0.241331E+05   0.000000E+00
   0.241331E+05   0.277954E+04   0.000000E+00
   0.000000E+00   0.000000E+00   0.000000E+00
   0.187465E+01   0.526604E+06   0.000000E+00
   0.526604E+06   0.306153E+04   0.000000E+00
   0.000000E+00   0.000000E+00   0.000000E+00
   0.164512E+01   0.596034E+06   0.000000E+00
   0.596034E+06   0.305727E+04   0.000000E+00
   0.000000E+00   0.000000E+00   0.000000E+00
