# vtk DataFile Version 3.0
Particle data
ASCII
DATASET POLYDATA
POINTS 4 float
   0.279768E+01   0.189551E+01   0.000000E+00
   0.284486E+01   0.189551E+01   0.000000E+00
   0.279768E+01   0.185599E+01   0.000000E+00
   0.284486E+01   0.185599E+01   0.000000E+00
POINT_DATA 4
VECTORS velocity float
   0.690251-309   0.690251-309   0.000000E+00
   0.000000E+00   0.000000E+00   0.000000E+00
   0.170000E+01   0.180000E+01   0.000000E+00
   0.190000E+01   0.200000E+01   0.000000E+00
SCALARS volume float 1
LOOKUP_TABLE default
   0.100000E-11
   0.100000E-11
   0.100000E-11
   0.100000E-11
TENSORS stress float
   0.000000E+00   0.616625E+04   0.000000E+00
   0.616625E+04   0.247945E+04   0.000000E+00
   0.000000E+00   0.000000E+00   0.000000E+00
   0.000000E+00   0.950078E+04   0.000000E+00
   0.950078E+04   0.246682E+04   0.000000E+00
   0.000000E+00   0.000000E+00   0.000000E+00
   0.000000E+00   0.522107E+06   0.000000E+00
   0.522107E+06   0.274880E+04   0.000000E+00
   0.000000E+00   0.000000E+00   0.000000E+00
   0.000000E+00   0.581402E+06   0.000000E+00
   0.581402E+06   0.274455E+04   0.000000E+00
   0.000000E+00   0.000000E+00   0.000000E+00
