# vtk DataFile Version 3.0
Particle data
ASCII
DATASET POLYDATA
POINTS 4 float
   0.290134E+01   0.189126E+01   0.000000E+00
   0.294859E+01   0.189126E+01   0.000000E+00
   0.290134E+01   0.185192E+01   0.000000E+00
   0.294859E+01   0.185192E+01   0.000000E+00
POINT_DATA 4
VECTORS velocity float
   0.690251-309   0.690251-309   0.000000E+00
   0.000000E+00   0.000000E+00   0.000000E+00
   0.170000E+01   0.180000E+01   0.000000E+00
   0.190000E+01   0.200000E+01   0.000000E+00
SCALARS volume float 1
LOOKUP_TABLE default
   0.100000E-11
   0.100000E-11
   0.100000E-11
   0.100000E-11
TENSORS stress float
   0.000000E+00   0.102895E+05   0.000000E+00
   0.102895E+05   0.257989E+04   0.000000E+00
   0.000000E+00   0.000000E+00   0.000000E+00
   0.000000E+00   0.168057E+05   0.000000E+00
   0.168057E+05   0.256726E+04   0.000000E+00
   0.000000E+00   0.000000E+00   0.000000E+00
   0.000000E+00   0.526230E+06   0.000000E+00
   0.526230E+06   0.284924E+04   0.000000E+00
   0.000000E+00   0.000000E+00   0.000000E+00
   0.000000E+00   0.588707E+06   0.000000E+00
   0.588707E+06   0.284498E+04   0.000000E+00
   0.000000E+00   0.000000E+00   0.000000E+00
