# vtk DataFile Version 3.0
Particle data
ASCII
DATASET POLYDATA
POINTS 4 float
   0.269106E+01   0.189975E+01   0.000000E+00
   0.273779E+01   0.189975E+01   0.000000E+00
   0.269106E+01   0.185998E+01   0.000000E+00
   0.273779E+01   0.185998E+01   0.000000E+00
POINT_DATA 4
VECTORS velocity float
   0.690251-309   0.690251-309   0.000000E+00
   0.000000E+00   0.000000E+00   0.000000E+00
   0.170000E+01   0.180000E+01   0.000000E+00
   0.190000E+01   0.200000E+01   0.000000E+00
SCALARS volume float 1
LOOKUP_TABLE default
   0.100000E-11
   0.100000E-11
   0.100000E-11
   0.100000E-11
TENSORS stress float
   0.000000E+00   0.270179E+03   0.000000E+00
   0.270179E+03   0.238905E+04   0.000000E+00
   0.000000E+00   0.000000E+00   0.000000E+00
   0.000000E+00   0.382465E+03   0.000000E+00
   0.382465E+03   0.237644E+04   0.000000E+00
   0.000000E+00   0.000000E+00   0.000000E+00
   0.000000E+00   0.516211E+06   0.000000E+00
   0.516211E+06   0.265840E+04   0.000000E+00
   0.000000E+00   0.000000E+00   0.000000E+00
   0.000000E+00   0.572284E+06   0.000000E+00
   0.572284E+06   0.265416E+04   0.000000E+00
   0.000000E+00   0.000000E+00   0.000000E+00
