# vtk DataFile Version 3.0
Particle data
ASCII
DATASET POLYDATA
POINTS 4 float
   0.313106E+01   0.188176E+01   0.000000E+00
   0.317832E+01   0.188176E+01   0.000000E+00
   0.313106E+01   0.184265E+01   0.000000E+00
   0.317832E+01   0.184265E+01   0.000000E+00
POINT_DATA 4
VECTORS velocity float
   0.690251-309   0.690251-309   0.000000E+00
   0.000000E+00   0.000000E+00   0.000000E+00
   0.170000E+01   0.180000E+01   0.000000E+00
   0.190000E+01   0.200000E+01   0.000000E+00
SCALARS volume float 1
LOOKUP_TABLE default
   0.100000E-11
   0.100000E-11
   0.100000E-11
   0.100000E-11
TENSORS stress float
   0.179110E+00   0.133331E+05   0.000000E+00
   0.133331E+05   0.290746E+04   0.000000E+00
   0.000000E+00   0.000000E+00   0.000000E+00
   0.179110E+00   0.300777E+05   0.000000E+00
   0.300777E+05   0.289483E+04   0.000000E+00
   0.000000E+00   0.000000E+00   0.000000E+00
   0.179110E+00   0.529274E+06   0.000000E+00
   0.529274E+06   0.317681E+04   0.000000E+00
   0.000000E+00   0.000000E+00   0.000000E+00
   0.179110E+00   0.601979E+06   0.000000E+00
   0.601979E+06   0.317255E+04   0.000000E+00
   0.000000E+00   0.000000E+00   0.000000E+00
