# vtk DataFile Version 3.0
Particle data
ASCII
DATASET POLYDATA
POINTS 4 float
   0.281904E+01   0.189477E+01   0.000000E+00
   0.286628E+01   0.189477E+01   0.000000E+00
   0.281904E+01   0.185525E+01   0.000000E+00
   0.286628E+01   0.185525E+01   0.000000E+00
POINT_DATA 4
VECTORS velocity float
   0.690251-309   0.690251-309   0.000000E+00
   0.000000E+00   0.000000E+00   0.000000E+00
   0.170000E+01   0.180000E+01   0.000000E+00
   0.190000E+01   0.200000E+01   0.000000E+00
SCALARS volume float 1
LOOKUP_TABLE default
   0.100000E-11
   0.100000E-11
   0.100000E-11
   0.100000E-11
TENSORS stress float
   0.000000E+00   0.683000E+04   0.000000E+00
   0.683000E+04   0.249584E+04   0.000000E+00
   0.000000E+00   0.000000E+00   0.000000E+00
   0.000000E+00   0.106792E+05   0.000000E+00
   0.106792E+05   0.248320E+04   0.000000E+00
   0.000000E+00   0.000000E+00   0.000000E+00
   0.000000E+00   0.522771E+06   0.000000E+00
   0.522771E+06   0.276519E+04   0.000000E+00
   0.000000E+00   0.000000E+00   0.000000E+00
   0.000000E+00   0.582580E+06   0.000000E+00
   0.582580E+06   0.276093E+04   0.000000E+00
   0.000000E+00   0.000000E+00   0.000000E+00
