# vtk DataFile Version 3.0
Particle data
ASCII
DATASET POLYDATA
POINTS 4 float
   0.279051E+01   0.189583E+01   0.000000E+00
   0.283726E+01   0.189583E+01   0.000000E+00
   0.279051E+01   0.185628E+01   0.000000E+00
   0.283726E+01   0.185628E+01   0.000000E+00
POINT_DATA 4
VECTORS velocity float
   0.690251-309   0.690251-309   0.000000E+00
   0.000000E+00   0.000000E+00   0.000000E+00
   0.170000E+01   0.180000E+01   0.000000E+00
   0.190000E+01   0.200000E+01   0.000000E+00
SCALARS volume float 1
LOOKUP_TABLE default
   0.100000E-11
   0.100000E-11
   0.100000E-11
   0.100000E-11
TENSORS stress float
   0.000000E+00   0.596223E+04   0.000000E+00
   0.596223E+04   0.246823E+04   0.000000E+00
   0.000000E+00   0.000000E+00   0.000000E+00
   0.000000E+00   0.888570E+04   0.000000E+00
   0.888570E+04   0.245562E+04   0.000000E+00
   0.000000E+00   0.000000E+00   0.000000E+00
   0.000000E+00   0.521903E+06   0.000000E+00
   0.521903E+06   0.273758E+04   0.000000E+00
   0.000000E+00   0.000000E+00   0.000000E+00
   0.000000E+00   0.580787E+06   0.000000E+00
   0.580787E+06   0.273335E+04   0.000000E+00
   0.000000E+00   0.000000E+00   0.000000E+00
