# vtk DataFile Version 3.0
Particle data
ASCII
DATASET POLYDATA
POINTS 4 float
   0.328106E+01   0.187557E+01   0.000000E+00
   0.332778E+01   0.187557E+01   0.000000E+00
   0.328106E+01   0.183654E+01   0.000000E+00
   0.332778E+01   0.183654E+01   0.000000E+00
POINT_DATA 4
VECTORS velocity float
   0.690251-309   0.690251-309   0.000000E+00
   0.000000E+00   0.000000E+00   0.000000E+00
   0.170000E+01   0.180000E+01   0.000000E+00
   0.190000E+01   0.200000E+01   0.000000E+00
SCALARS volume float 1
LOOKUP_TABLE default
   0.100000E-11
   0.100000E-11
   0.100000E-11
   0.100000E-11
TENSORS stress float
   0.000000E+00   0.148642E+05   0.000000E+00
   0.148642E+05   0.306446E+04   0.000000E+00
   0.000000E+00   0.000000E+00   0.000000E+00
   0.000000E+00   0.361404E+05   0.000000E+00
   0.361404E+05   0.305189E+04   0.000000E+00
   0.000000E+00   0.000000E+00   0.000000E+00
   0.000000E+00   0.530805E+06   0.000000E+00
   0.530805E+06   0.333382E+04   0.000000E+00
   0.000000E+00   0.000000E+00   0.000000E+00
   0.000000E+00   0.608042E+06   0.000000E+00
   0.608042E+06   0.332961E+04   0.000000E+00
   0.000000E+00   0.000000E+00   0.000000E+00
