# vtk DataFile Version 3.0
Particle data
ASCII
DATASET POLYDATA
POINTS 4 float
   0.646037E+00   0.195279E+01   0.000000E+00
   0.700954E+00   0.195279E+01   0.000000E+00
   0.646037E+00   0.191367E+01   0.000000E+00
   0.700954E+00   0.191367E+01   0.000000E+00
POINT_DATA 4
VECTORS velocity float
   0.690251-309   0.690251-309   0.000000E+00
   0.000000E+00   0.000000E+00   0.000000E+00
   0.170000E+01   0.180000E+01   0.000000E+00
   0.190000E+01   0.200000E+01   0.000000E+00
SCALARS volume float 1
LOOKUP_TABLE default
   0.100000E-11
   0.100000E-11
   0.100000E-11
   0.100000E-11
TENSORS stress float
   0.146042E+02   0.000000E+00   0.000000E+00
   0.000000E+00   0.178475E+04   0.000000E+00
   0.000000E+00   0.000000E+00   0.000000E+00
   0.140659E+02   0.120833E+05   0.000000E+00
   0.120833E+05   0.179237E+04   0.000000E+00
   0.000000E+00   0.000000E+00   0.000000E+00
   0.146042E+02   0.470451E+04   0.000000E+00
   0.470451E+04   0.205656E+04   0.000000E+00
   0.000000E+00   0.000000E+00   0.000000E+00
   0.140659E+02   0.279246E+05   0.000000E+00
   0.279246E+05   0.207254E+04   0.000000E+00
   0.000000E+00   0.000000E+00   0.000000E+00
