# vtk DataFile Version 3.0
Particle data
ASCII
DATASET POLYDATA
POINTS 4 float
   0.565450E+00   0.196384E+01   0.000000E+00
   0.619612E+00   0.196384E+01   0.000000E+00
   0.565450E+00   0.192483E+01   0.000000E+00
   0.619612E+00   0.192483E+01   0.000000E+00
POINT_DATA 4
VECTORS velocity float
   0.690251-309   0.690251-309   0.000000E+00
   0.000000E+00   0.000000E+00   0.000000E+00
   0.170000E+01   0.180000E+01   0.000000E+00
   0.190000E+01   0.200000E+01   0.000000E+00
SCALARS volume float 1
LOOKUP_TABLE default
   0.100000E-11
   0.100000E-11
   0.100000E-11
   0.100000E-11
TENSORS stress float
   0.621390E+01   0.359295E+03   0.000000E+00
   0.359295E+03   0.126612E+04   0.000000E+00
   0.000000E+00   0.000000E+00   0.000000E+00
   0.104712E+02   0.119331E+05   0.000000E+00
   0.119331E+05   0.127388E+04   0.000000E+00
   0.000000E+00   0.000000E+00   0.000000E+00
   0.621390E+01   0.119654E+05   0.000000E+00
   0.119654E+05   0.153792E+04   0.000000E+00
   0.000000E+00   0.000000E+00   0.000000E+00
   0.104712E+02   0.277745E+05   0.000000E+00
   0.277745E+05   0.155405E+04   0.000000E+00
   0.000000E+00   0.000000E+00   0.000000E+00
