# vtk DataFile Version 3.0
Particle data
ASCII
DATASET POLYDATA
POINTS 4 float
   0.321109E+01   0.187835E+01   0.000000E+00
   0.325832E+01   0.187835E+01   0.000000E+00
   0.321109E+01   0.183930E+01   0.000000E+00
   0.325832E+01   0.183930E+01   0.000000E+00
POINT_DATA 4
VECTORS velocity float
   0.690251-309   0.690251-309   0.000000E+00
   0.000000E+00   0.000000E+00   0.000000E+00
   0.170000E+01   0.180000E+01   0.000000E+00
   0.190000E+01   0.200000E+01   0.000000E+00
SCALARS volume float 1
LOOKUP_TABLE default
   0.100000E-11
   0.100000E-11
   0.100000E-11
   0.100000E-11
TENSORS stress float
   0.000000E+00   0.139378E+05   0.000000E+00
   0.139378E+05   0.300731E+04   0.000000E+00
   0.000000E+00   0.000000E+00   0.000000E+00
   0.000000E+00   0.336647E+05   0.000000E+00
   0.336647E+05   0.299468E+04   0.000000E+00
   0.000000E+00   0.000000E+00   0.000000E+00
   0.000000E+00   0.529879E+06   0.000000E+00
   0.529879E+06   0.327666E+04   0.000000E+00
   0.000000E+00   0.000000E+00   0.000000E+00
   0.000000E+00   0.605566E+06   0.000000E+00
   0.605566E+06   0.327241E+04   0.000000E+00
   0.000000E+00   0.000000E+00   0.000000E+00
