# vtk DataFile Version 3.0
Particle data
ASCII
DATASET POLYDATA
POINTS 4 float
   0.712114E+00   0.194519E+01   0.000000E+00
   0.767434E+00   0.194519E+01   0.000000E+00
   0.712114E+00   0.190568E+01   0.000000E+00
   0.767434E+00   0.190568E+01   0.000000E+00
POINT_DATA 4
VECTORS velocity float
   0.690251-309   0.690251-309   0.000000E+00
   0.000000E+00   0.000000E+00   0.000000E+00
   0.170000E+01   0.180000E+01   0.000000E+00
   0.190000E+01   0.200000E+01   0.000000E+00
SCALARS volume float 1
LOOKUP_TABLE default
   0.100000E-11
   0.100000E-11
   0.100000E-11
   0.100000E-11
TENSORS stress float
   0.644833E+01   0.000000E+00   0.000000E+00
   0.000000E+00   0.222489E+04   0.000000E+00
   0.000000E+00   0.000000E+00   0.000000E+00
   0.598433E+01   0.100889E+05   0.000000E+00
   0.100889E+05   0.223250E+04   0.000000E+00
   0.000000E+00   0.000000E+00   0.000000E+00
   0.644833E+01   0.000000E+00   0.000000E+00
   0.000000E+00   0.249669E+04   0.000000E+00
   0.000000E+00   0.000000E+00   0.000000E+00
   0.598433E+01   0.259302E+05   0.000000E+00
   0.259302E+05   0.251267E+04   0.000000E+00
   0.000000E+00   0.000000E+00   0.000000E+00
