# vtk DataFile Version 3.0
Particle data
ASCII
DATASET POLYDATA
POINTS 4 float
   0.790610E+00   0.193868E+01   0.000000E+00
   0.845685E+00   0.193868E+01   0.000000E+00
   0.790610E+00   0.189869E+01   0.000000E+00
   0.845685E+00   0.189869E+01   0.000000E+00
POINT_DATA 4
VECTORS velocity float
   0.690251-309   0.690251-309   0.000000E+00
   0.000000E+00   0.000000E+00   0.000000E+00
   0.170000E+01   0.180000E+01   0.000000E+00
   0.190000E+01   0.200000E+01   0.000000E+00
SCALARS volume float 1
LOOKUP_TABLE default
   0.100000E-11
   0.100000E-11
   0.100000E-11
   0.100000E-11
TENSORS stress float
   0.000000E+00   0.000000E+00   0.000000E+00
   0.000000E+00   0.230800E+04   0.000000E+00
   0.000000E+00   0.000000E+00   0.000000E+00
   0.000000E+00   0.638290E+04   0.000000E+00
   0.638290E+04   0.230963E+04   0.000000E+00
   0.000000E+00   0.000000E+00   0.000000E+00
   0.000000E+00   0.319541E+06   0.000000E+00
   0.319541E+06   0.257432E+04   0.000000E+00
   0.000000E+00   0.000000E+00   0.000000E+00
   0.000000E+00   0.343413E+06   0.000000E+00
   0.343413E+06   0.258433E+04   0.000000E+00
   0.000000E+00   0.000000E+00   0.000000E+00
