# vtk DataFile Version 3.0
Particle data
ASCII
DATASET POLYDATA
POINTS 4 float
   0.752368E+00   0.194215E+01   0.000000E+00
   0.807441E+00   0.194215E+01   0.000000E+00
   0.752368E+00   0.190263E+01   0.000000E+00
   0.807441E+00   0.190263E+01   0.000000E+00
POINT_DATA 4
VECTORS velocity float
   0.690251-309   0.690251-309   0.000000E+00
   0.000000E+00   0.000000E+00   0.000000E+00
   0.170000E+01   0.180000E+01   0.000000E+00
   0.190000E+01   0.200000E+01   0.000000E+00
SCALARS volume float 1
LOOKUP_TABLE default
   0.100000E-11
   0.100000E-11
   0.100000E-11
   0.100000E-11
TENSORS stress float
   0.601040E+01   0.000000E+00   0.000000E+00
   0.000000E+00   0.229223E+04   0.000000E+00
   0.000000E+00   0.000000E+00   0.000000E+00
   0.688842E+01   0.921879E+04   0.000000E+00
   0.921879E+04   0.229988E+04   0.000000E+00
   0.000000E+00   0.000000E+00   0.000000E+00
   0.601040E+01   0.000000E+00   0.000000E+00
   0.000000E+00   0.256403E+04   0.000000E+00
   0.000000E+00   0.000000E+00   0.000000E+00
   0.688842E+01   0.250601E+05   0.000000E+00
   0.250601E+05   0.258005E+04   0.000000E+00
   0.000000E+00   0.000000E+00   0.000000E+00
