# vtk DataFile Version 3.0
Particle data
ASCII
DATASET POLYDATA
POINTS 4 float
   0.789303E+00   0.193879E+01   0.000000E+00
   0.844255E+00   0.193879E+01   0.000000E+00
   0.789303E+00   0.189882E+01   0.000000E+00
   0.844255E+00   0.189882E+01   0.000000E+00
POINT_DATA 4
VECTORS velocity float
   0.690251-309   0.690251-309   0.000000E+00
   0.000000E+00   0.000000E+00   0.000000E+00
   0.170000E+01   0.180000E+01   0.000000E+00
   0.190000E+01   0.200000E+01   0.000000E+00
SCALARS volume float 1
LOOKUP_TABLE default
   0.100000E-11
   0.100000E-11
   0.100000E-11
   0.100000E-11
TENSORS stress float
   0.000000E+00   0.000000E+00   0.000000E+00
   0.000000E+00   0.230665E+04   0.000000E+00
   0.000000E+00   0.000000E+00   0.000000E+00
   0.000000E+00   0.649902E+04   0.000000E+00
   0.649902E+04   0.230850E+04   0.000000E+00
   0.000000E+00   0.000000E+00   0.000000E+00
   0.000000E+00   0.314287E+06   0.000000E+00
   0.314287E+06   0.257361E+04   0.000000E+00
   0.000000E+00   0.000000E+00   0.000000E+00
   0.000000E+00   0.338087E+06   0.000000E+00
   0.338087E+06   0.258384E+04   0.000000E+00
   0.000000E+00   0.000000E+00   0.000000E+00
