# vtk DataFile Version 3.0
Particle data
ASCII
DATASET POLYDATA
POINTS 4 float
   0.305095E+01   0.188524E+01   0.000000E+00
   0.309824E+01   0.188524E+01   0.000000E+00
   0.305095E+01   0.184603E+01   0.000000E+00
   0.309824E+01   0.184603E+01   0.000000E+00
POINT_DATA 4
VECTORS velocity float
   0.690251-309   0.690251-309   0.000000E+00
   0.000000E+00   0.000000E+00   0.000000E+00
   0.170000E+01   0.180000E+01   0.000000E+00
   0.190000E+01   0.200000E+01   0.000000E+00
SCALARS volume float 1
LOOKUP_TABLE default
   0.100000E-11
   0.100000E-11
   0.100000E-11
   0.100000E-11
TENSORS stress float
   0.760657E+00   0.118811E+05   0.000000E+00
   0.118811E+05   0.280005E+04   0.000000E+00
   0.000000E+00   0.000000E+00   0.000000E+00
   0.531130E+00   0.253512E+05   0.000000E+00
   0.253512E+05   0.278741E+04   0.000000E+00
   0.000000E+00   0.000000E+00   0.000000E+00
   0.760657E+00   0.527822E+06   0.000000E+00
   0.527822E+06   0.306940E+04   0.000000E+00
   0.000000E+00   0.000000E+00   0.000000E+00
   0.531130E+00   0.597253E+06   0.000000E+00
   0.597253E+06   0.306514E+04   0.000000E+00
   0.000000E+00   0.000000E+00   0.000000E+00
