# vtk DataFile Version 3.0
Particle data
ASCII
DATASET POLYDATA
POINTS 4 float
   0.328851E+01   0.187518E+01   0.000000E+00
   0.333524E+01   0.187518E+01   0.000000E+00
   0.328851E+01   0.183615E+01   0.000000E+00
   0.333524E+01   0.183615E+01   0.000000E+00
POINT_DATA 4
VECTORS velocity float
   0.690251-309   0.690251-309   0.000000E+00
   0.000000E+00   0.000000E+00   0.000000E+00
   0.170000E+01   0.180000E+01   0.000000E+00
   0.190000E+01   0.200000E+01   0.000000E+00
SCALARS volume float 1
LOOKUP_TABLE default
   0.100000E-11
   0.100000E-11
   0.100000E-11
   0.100000E-11
TENSORS stress float
   0.000000E+00   0.148426E+05   0.000000E+00
   0.148426E+05   0.307185E+04   0.000000E+00
   0.000000E+00   0.000000E+00   0.000000E+00
   0.000000E+00   0.363359E+05   0.000000E+00
   0.363359E+05   0.305926E+04   0.000000E+00
   0.000000E+00   0.000000E+00   0.000000E+00
   0.000000E+00   0.530783E+06   0.000000E+00
   0.530783E+06   0.334120E+04   0.000000E+00
   0.000000E+00   0.000000E+00   0.000000E+00
   0.000000E+00   0.608237E+06   0.000000E+00
   0.608237E+06   0.333698E+04   0.000000E+00
   0.000000E+00   0.000000E+00   0.000000E+00
