# vtk DataFile Version 3.0
Particle data
ASCII
DATASET POLYDATA
POINTS 4 float
   0.531493E+00   0.196918E+01   0.000000E+00
   0.586130E+00   0.196918E+01   0.000000E+00
   0.531493E+00   0.193021E+01   0.000000E+00
   0.586130E+00   0.193021E+01   0.000000E+00
POINT_DATA 4
VECTORS velocity float
   0.690251-309   0.690251-309   0.000000E+00
   0.000000E+00   0.000000E+00   0.000000E+00
   0.170000E+01   0.180000E+01   0.000000E+00
   0.190000E+01   0.200000E+01   0.000000E+00
SCALARS volume float 1
LOOKUP_TABLE default
   0.100000E-11
   0.100000E-11
   0.100000E-11
   0.100000E-11
TENSORS stress float
   0.109882E+02   0.823648E+03   0.000000E+00
   0.823648E+03   0.976375E+03   0.000000E+00
   0.000000E+00   0.000000E+00   0.000000E+00
   0.101780E+02   0.888799E+04   0.000000E+00
   0.888799E+04   0.983976E+03   0.000000E+00
   0.000000E+00   0.000000E+00   0.000000E+00
   0.109882E+02   0.124297E+05   0.000000E+00
   0.124297E+05   0.124818E+04   0.000000E+00
   0.000000E+00   0.000000E+00   0.000000E+00
   0.101780E+02   0.247293E+05   0.000000E+00
   0.247293E+05   0.126415E+04   0.000000E+00
   0.000000E+00   0.000000E+00   0.000000E+00
