# vtk DataFile Version 3.0
Particle data
ASCII
DATASET POLYDATA
POINTS 4 float
   0.692102E+00   0.194691E+01   0.000000E+00
   0.747077E+00   0.194691E+01   0.000000E+00
   0.692102E+00   0.190742E+01   0.000000E+00
   0.747077E+00   0.190742E+01   0.000000E+00
POINT_DATA 4
VECTORS velocity float
   0.690251-309   0.690251-309   0.000000E+00
   0.000000E+00   0.000000E+00   0.000000E+00
   0.170000E+01   0.180000E+01   0.000000E+00
   0.190000E+01   0.200000E+01   0.000000E+00
SCALARS volume float 1
LOOKUP_TABLE default
   0.100000E-11
   0.100000E-11
   0.100000E-11
   0.100000E-11
TENSORS stress float
   0.000000E+00   0.000000E+00   0.000000E+00
   0.000000E+00   0.193719E+04   0.000000E+00
   0.000000E+00   0.000000E+00   0.000000E+00
   0.000000E+00   0.111426E+05   0.000000E+00
   0.111426E+05   0.194486E+04   0.000000E+00
   0.000000E+00   0.000000E+00   0.000000E+00
   0.000000E+00   0.128886E+04   0.000000E+00
   0.128886E+04   0.220899E+04   0.000000E+00
   0.000000E+00   0.000000E+00   0.000000E+00
   0.000000E+00   0.269839E+05   0.000000E+00
   0.269839E+05   0.222503E+04   0.000000E+00
   0.000000E+00   0.000000E+00   0.000000E+00
