# vtk DataFile Version 3.0
Particle data
ASCII
DATASET POLYDATA
POINTS 4 float
   0.605457E+00   0.195724E+01   0.000000E+00
   0.660398E+00   0.195724E+01   0.000000E+00
   0.605457E+00   0.191812E+01   0.000000E+00
   0.660398E+00   0.191812E+01   0.000000E+00
POINT_DATA 4
VECTORS velocity float
   0.690251-309   0.690251-309   0.000000E+00
   0.000000E+00   0.000000E+00   0.000000E+00
   0.170000E+01   0.180000E+01   0.000000E+00
   0.190000E+01   0.200000E+01   0.000000E+00
SCALARS volume float 1
LOOKUP_TABLE default
   0.100000E-11
   0.100000E-11
   0.100000E-11
   0.100000E-11
TENSORS stress float
   0.671517E+01   0.000000E+00   0.000000E+00
   0.000000E+00   0.165086E+04   0.000000E+00
   0.000000E+00   0.000000E+00   0.000000E+00
   0.604150E+01   0.113009E+05   0.000000E+00
   0.113009E+05   0.165847E+04   0.000000E+00
   0.000000E+00   0.000000E+00   0.000000E+00
   0.671517E+01   0.589286E+04   0.000000E+00
   0.589286E+04   0.192266E+04   0.000000E+00
   0.000000E+00   0.000000E+00   0.000000E+00
   0.604150E+01   0.271423E+05   0.000000E+00
   0.271423E+05   0.193864E+04   0.000000E+00
   0.000000E+00   0.000000E+00   0.000000E+00
