# vtk DataFile Version 3.0
Particle data
ASCII
DATASET POLYDATA
POINTS 4 float
   0.318507E+01   0.187942E+01   0.000000E+00
   0.323167E+01   0.187942E+01   0.000000E+00
   0.318507E+01   0.184034E+01   0.000000E+00
   0.323167E+01   0.184034E+01   0.000000E+00
POINT_DATA 4
VECTORS velocity float
   0.690251-309   0.690251-309   0.000000E+00
   0.000000E+00   0.000000E+00   0.000000E+00
   0.170000E+01   0.180000E+01   0.000000E+00
   0.190000E+01   0.200000E+01   0.000000E+00
SCALARS volume float 1
LOOKUP_TABLE default
   0.100000E-11
   0.100000E-11
   0.100000E-11
   0.100000E-11
TENSORS stress float
   0.000000E+00   0.144614E+05   0.000000E+00
   0.144614E+05   0.296543E+04   0.000000E+00
   0.000000E+00   0.000000E+00   0.000000E+00
   0.000000E+00   0.328883E+05   0.000000E+00
   0.328883E+05   0.295284E+04   0.000000E+00
   0.000000E+00   0.000000E+00   0.000000E+00
   0.000000E+00   0.530402E+06   0.000000E+00
   0.530402E+06   0.323478E+04   0.000000E+00
   0.000000E+00   0.000000E+00   0.000000E+00
   0.000000E+00   0.604790E+06   0.000000E+00
   0.604790E+06   0.323057E+04   0.000000E+00
   0.000000E+00   0.000000E+00   0.000000E+00
