# vtk DataFile Version 3.0
Particle data
ASCII
DATASET POLYDATA
POINTS 4 float
   0.915187E+00   0.193254E+01   0.000000E+00
   0.960301E+00   0.193254E+01   0.000000E+00
   0.915187E+00   0.189244E+01   0.000000E+00
   0.960301E+00   0.189244E+01   0.000000E+00
POINT_DATA 4
VECTORS velocity float
   0.690251-309   0.690251-309   0.000000E+00
   0.000000E+00   0.000000E+00   0.000000E+00
   0.170000E+01   0.180000E+01   0.000000E+00
   0.190000E+01   0.200000E+01   0.000000E+00
SCALARS volume float 1
LOOKUP_TABLE default
   0.100000E-11
   0.100000E-11
   0.100000E-11
   0.100000E-11
TENSORS stress float
   0.000000E+00   0.000000E+00   0.000000E+00
   0.000000E+00   0.238790E+04   0.000000E+00
   0.000000E+00   0.000000E+00   0.000000E+00
   0.000000E+00   0.134694E+04   0.000000E+00
   0.134694E+04   0.238902E+04   0.000000E+00
   0.000000E+00   0.000000E+00   0.000000E+00
   0.000000E+00   0.417191E+06   0.000000E+00
   0.417191E+06   0.262476E+04   0.000000E+00
   0.000000E+00   0.000000E+00   0.000000E+00
   0.000000E+00   0.446513E+06   0.000000E+00
   0.446513E+06   0.263425E+04   0.000000E+00
   0.000000E+00   0.000000E+00   0.000000E+00
