# vtk DataFile Version 3.0
Particle data
ASCII
DATASET POLYDATA
POINTS 4 float
   0.316581E+01   0.188045E+01   0.000000E+00
   0.321247E+01   0.188045E+01   0.000000E+00
   0.316581E+01   0.184137E+01   0.000000E+00
   0.321247E+01   0.184137E+01   0.000000E+00
POINT_DATA 4
VECTORS velocity float
   0.690251-309   0.690251-309   0.000000E+00
   0.000000E+00   0.000000E+00   0.000000E+00
   0.170000E+01   0.180000E+01   0.000000E+00
   0.190000E+01   0.200000E+01   0.000000E+00
SCALARS volume float 1
LOOKUP_TABLE default
   0.100000E-11
   0.100000E-11
   0.100000E-11
   0.100000E-11
TENSORS stress float
   0.000000E+00   0.141128E+05   0.000000E+00
   0.141128E+05   0.294702E+04   0.000000E+00
   0.000000E+00   0.000000E+00   0.000000E+00
   0.000000E+00   0.320087E+05   0.000000E+00
   0.320087E+05   0.293443E+04   0.000000E+00
   0.000000E+00   0.000000E+00   0.000000E+00
   0.000000E+00   0.530054E+06   0.000000E+00
   0.530054E+06   0.321637E+04   0.000000E+00
   0.000000E+00   0.000000E+00   0.000000E+00
   0.000000E+00   0.603910E+06   0.000000E+00
   0.603910E+06   0.321215E+04   0.000000E+00
   0.000000E+00   0.000000E+00   0.000000E+00
