# vtk DataFile Version 3.0
Particle data
ASCII
DATASET POLYDATA
POINTS 4 float
   0.679364E+00   0.194851E+01   0.000000E+00
   0.733339E+00   0.194851E+01   0.000000E+00
   0.679364E+00   0.190920E+01   0.000000E+00
   0.733339E+00   0.190920E+01   0.000000E+00
POINT_DATA 4
VECTORS velocity float
   0.690251-309   0.690251-309   0.000000E+00
   0.000000E+00   0.000000E+00   0.000000E+00
   0.170000E+01   0.180000E+01   0.000000E+00
   0.190000E+01   0.200000E+01   0.000000E+00
SCALARS volume float 1
LOOKUP_TABLE default
   0.100000E-11
   0.100000E-11
   0.100000E-11
   0.100000E-11
TENSORS stress float
   0.000000E+00   0.000000E+00   0.000000E+00
   0.000000E+00   0.190733E+04   0.000000E+00
   0.000000E+00   0.000000E+00   0.000000E+00
   0.190684E+01   0.119153E+05   0.000000E+00
   0.119153E+05   0.191507E+04   0.000000E+00
   0.000000E+00   0.000000E+00   0.000000E+00
   0.000000E+00   0.255319E+04   0.000000E+00
   0.255319E+04   0.217913E+04   0.000000E+00
   0.000000E+00   0.000000E+00   0.000000E+00
   0.190684E+01   0.277566E+05   0.000000E+00
   0.277566E+05   0.219525E+04   0.000000E+00
   0.000000E+00   0.000000E+00   0.000000E+00
