# vtk DataFile Version 3.0
Particle data
ASCII
DATASET POLYDATA
POINTS 4 float
   0.165412E+01   0.191870E+01   0.000000E+00
   0.170446E+01   0.191870E+01   0.000000E+00
   0.165412E+01   0.187860E+01   0.000000E+00
   0.170446E+01   0.187860E+01   0.000000E+00
POINT_DATA 4
VECTORS velocity float
   0.690251-309   0.690251-309   0.000000E+00
   0.000000E+00   0.000000E+00   0.000000E+00
   0.170000E+01   0.180000E+01   0.000000E+00
   0.190000E+01   0.200000E+01   0.000000E+00
SCALARS volume float 1
LOOKUP_TABLE default
   0.100000E-11
   0.100000E-11
   0.100000E-11
   0.100000E-11
TENSORS stress float
   0.000000E+00   0.000000E+00   0.000000E+00
   0.000000E+00   0.239752E+04   0.000000E+00
   0.000000E+00   0.000000E+00   0.000000E+00
   0.000000E+00   0.180041E+03   0.000000E+00
   0.180041E+03   0.239865E+04   0.000000E+00
   0.000000E+00   0.000000E+00   0.000000E+00
   0.000000E+00   0.476056E+06   0.000000E+00
   0.476056E+06   0.263051E+04   0.000000E+00
   0.000000E+00   0.000000E+00   0.000000E+00
   0.000000E+00   0.516650E+06   0.000000E+00
   0.516650E+06   0.264001E+04   0.000000E+00
   0.000000E+00   0.000000E+00   0.000000E+00
