# vtk DataFile Version 3.0
Particle data
ASCII
DATASET POLYDATA
POINTS 4 float
   0.595691E+00   0.195841E+01   0.000000E+00
   0.650513E+00   0.195841E+01   0.000000E+00
   0.595691E+00   0.191929E+01   0.000000E+00
   0.650513E+00   0.191929E+01   0.000000E+00
POINT_DATA 4
VECTORS velocity float
   0.690251-309   0.690251-309   0.000000E+00
   0.000000E+00   0.000000E+00   0.000000E+00
   0.170000E+01   0.180000E+01   0.000000E+00
   0.190000E+01   0.200000E+01   0.000000E+00
SCALARS volume float 1
LOOKUP_TABLE default
   0.100000E-11
   0.100000E-11
   0.100000E-11
   0.100000E-11
TENSORS stress float
   0.000000E+00   0.000000E+00   0.000000E+00
   0.000000E+00   0.137503E+04   0.000000E+00
   0.000000E+00   0.000000E+00   0.000000E+00
   0.000000E+00   0.115271E+05   0.000000E+00
   0.115271E+05   0.138267E+04   0.000000E+00
   0.000000E+00   0.000000E+00   0.000000E+00
   0.000000E+00   0.102642E+05   0.000000E+00
   0.102642E+05   0.164683E+04   0.000000E+00
   0.000000E+00   0.000000E+00   0.000000E+00
   0.000000E+00   0.273685E+05   0.000000E+00
   0.273685E+05   0.166284E+04   0.000000E+00
   0.000000E+00   0.000000E+00   0.000000E+00
