# vtk DataFile Version 3.0
Particle data
ASCII
DATASET POLYDATA
POINTS 4 float
   0.551714E+00   0.196632E+01   0.000000E+00
   0.606174E+00   0.196632E+01   0.000000E+00
   0.551714E+00   0.192736E+01   0.000000E+00
   0.606174E+00   0.192736E+01   0.000000E+00
POINT_DATA 4
VECTORS velocity float
   0.690251-309   0.690251-309   0.000000E+00
   0.000000E+00   0.000000E+00   0.000000E+00
   0.170000E+01   0.180000E+01   0.000000E+00
   0.190000E+01   0.200000E+01   0.000000E+00
SCALARS volume float 1
LOOKUP_TABLE default
   0.100000E-11
   0.100000E-11
   0.100000E-11
   0.100000E-11
TENSORS stress float
   0.154172E+02   0.650956E+03   0.000000E+00
   0.650956E+03   0.120664E+04   0.000000E+00
   0.000000E+00   0.000000E+00   0.000000E+00
   0.161235E+02   0.115474E+05   0.000000E+00
   0.115474E+05   0.121429E+04   0.000000E+00
   0.000000E+00   0.000000E+00   0.000000E+00
   0.154172E+02   0.122570E+05   0.000000E+00
   0.122570E+05   0.147844E+04   0.000000E+00
   0.000000E+00   0.000000E+00   0.000000E+00
   0.161235E+02   0.273887E+05   0.000000E+00
   0.273887E+05   0.149446E+04   0.000000E+00
   0.000000E+00   0.000000E+00   0.000000E+00
