# vtk DataFile Version 3.0
Particle data
ASCII
DATASET POLYDATA
POINTS 4 float
   0.115134E+01   0.192763E+01   0.000000E+00
   0.120380E+01   0.192763E+01   0.000000E+00
   0.115134E+01   0.188759E+01   0.000000E+00
   0.120380E+01   0.188759E+01   0.000000E+00
POINT_DATA 4
VECTORS velocity float
   0.690251-309   0.690251-309   0.000000E+00
   0.000000E+00   0.000000E+00   0.000000E+00
   0.170000E+01   0.180000E+01   0.000000E+00
   0.190000E+01   0.200000E+01   0.000000E+00
SCALARS volume float 1
LOOKUP_TABLE default
   0.100000E-11
   0.100000E-11
   0.100000E-11
   0.100000E-11
TENSORS stress float
   0.000000E+00   0.000000E+00   0.000000E+00
   0.000000E+00   0.240010E+04   0.000000E+00
   0.000000E+00   0.000000E+00   0.000000E+00
   0.000000E+00   0.627278E+03   0.000000E+00
   0.627278E+03   0.240123E+04   0.000000E+00
   0.000000E+00   0.000000E+00   0.000000E+00
   0.000000E+00   0.445206E+06   0.000000E+00
   0.445206E+06   0.263360E+04   0.000000E+00
   0.000000E+00   0.000000E+00   0.000000E+00
   0.000000E+00   0.478107E+06   0.000000E+00
   0.478107E+06   0.264311E+04   0.000000E+00
   0.000000E+00   0.000000E+00   0.000000E+00
