# vtk DataFile Version 3.0
Particle data
ASCII
DATASET POLYDATA
POINTS 4 float
   0.271764E+01   0.189882E+01   0.000000E+00
   0.276481E+01   0.189882E+01   0.000000E+00
   0.271764E+01   0.185908E+01   0.000000E+00
   0.276481E+01   0.185908E+01   0.000000E+00
POINT_DATA 4
VECTORS velocity float
   0.690251-309   0.690251-309   0.000000E+00
   0.000000E+00   0.000000E+00   0.000000E+00
   0.170000E+01   0.180000E+01   0.000000E+00
   0.190000E+01   0.200000E+01   0.000000E+00
SCALARS volume float 1
LOOKUP_TABLE default
   0.100000E-11
   0.100000E-11
   0.100000E-11
   0.100000E-11
TENSORS stress float
   0.000000E+00   0.138942E+04   0.000000E+00
   0.138942E+04   0.240952E+04   0.000000E+00
   0.000000E+00   0.000000E+00   0.000000E+00
   0.000000E+00   0.228579E+04   0.000000E+00
   0.228579E+04   0.239688E+04   0.000000E+00
   0.000000E+00   0.000000E+00   0.000000E+00
   0.000000E+00   0.517330E+06   0.000000E+00
   0.517330E+06   0.267887E+04   0.000000E+00
   0.000000E+00   0.000000E+00   0.000000E+00
   0.000000E+00   0.574187E+06   0.000000E+00
   0.574187E+06   0.267460E+04   0.000000E+00
   0.000000E+00   0.000000E+00   0.000000E+00
