# vtk DataFile Version 3.0
Particle data
ASCII
DATASET POLYDATA
POINTS 4 float
   0.534199E+00   0.196879E+01   0.000000E+00
   0.588832E+00   0.196879E+01   0.000000E+00
   0.534199E+00   0.192982E+01   0.000000E+00
   0.588832E+00   0.192982E+01   0.000000E+00
POINT_DATA 4
VECTORS velocity float
   0.690251-309   0.690251-309   0.000000E+00
   0.000000E+00   0.000000E+00   0.000000E+00
   0.170000E+01   0.180000E+01   0.000000E+00
   0.190000E+01   0.200000E+01   0.000000E+00
SCALARS volume float 1
LOOKUP_TABLE default
   0.100000E-11
   0.100000E-11
   0.100000E-11
   0.100000E-11
TENSORS stress float
   0.116782E+02   0.815537E+03   0.000000E+00
   0.815537E+03   0.978586E+03   0.000000E+00
   0.000000E+00   0.000000E+00   0.000000E+00
   0.108680E+02   0.887988E+04   0.000000E+00
   0.887988E+04   0.986187E+03   0.000000E+00
   0.000000E+00   0.000000E+00   0.000000E+00
   0.116782E+02   0.124216E+05   0.000000E+00
   0.124216E+05   0.125039E+04   0.000000E+00
   0.000000E+00   0.000000E+00   0.000000E+00
   0.108680E+02   0.247212E+05   0.000000E+00
   0.247212E+05   0.126636E+04   0.000000E+00
   0.000000E+00   0.000000E+00   0.000000E+00
