# vtk DataFile Version 3.0
Particle data
ASCII
DATASET POLYDATA
POINTS 4 float
   0.305807E+01   0.188498E+01   0.000000E+00
   0.310526E+01   0.188498E+01   0.000000E+00
   0.305807E+01   0.184577E+01   0.000000E+00
   0.310526E+01   0.184577E+01   0.000000E+00
POINT_DATA 4
VECTORS velocity float
   0.690251-309   0.690251-309   0.000000E+00
   0.000000E+00   0.000000E+00   0.000000E+00
   0.170000E+01   0.180000E+01   0.000000E+00
   0.190000E+01   0.200000E+01   0.000000E+00
SCALARS volume float 1
LOOKUP_TABLE default
   0.100000E-11
   0.100000E-11
   0.100000E-11
   0.100000E-11
TENSORS stress float
   0.168102E+00   0.121312E+05   0.000000E+00
   0.121312E+05   0.283333E+04   0.000000E+00
   0.000000E+00   0.000000E+00   0.000000E+00
   0.445106E+00   0.267387E+05   0.000000E+00
   0.267387E+05   0.282072E+04   0.000000E+00
   0.000000E+00   0.000000E+00   0.000000E+00
   0.168102E+00   0.528072E+06   0.000000E+00
   0.528072E+06   0.310268E+04   0.000000E+00
   0.000000E+00   0.000000E+00   0.000000E+00
   0.445106E+00   0.598640E+06   0.000000E+00
   0.598640E+06   0.309844E+04   0.000000E+00
   0.000000E+00   0.000000E+00   0.000000E+00
