# vtk DataFile Version 3.0
Particle data
ASCII
DATASET POLYDATA
POINTS 4 float
   0.282655E+01   0.189451E+01   0.000000E+00
   0.287379E+01   0.189451E+01   0.000000E+00
   0.282655E+01   0.185499E+01   0.000000E+00
   0.287379E+01   0.185499E+01   0.000000E+00
POINT_DATA 4
VECTORS velocity float
   0.690251-309   0.690251-309   0.000000E+00
   0.000000E+00   0.000000E+00   0.000000E+00
   0.170000E+01   0.180000E+01   0.000000E+00
   0.190000E+01   0.200000E+01   0.000000E+00
SCALARS volume float 1
LOOKUP_TABLE default
   0.100000E-11
   0.100000E-11
   0.100000E-11
   0.100000E-11
TENSORS stress float
   0.000000E+00   0.719722E+04   0.000000E+00
   0.719722E+04   0.249700E+04   0.000000E+00
   0.000000E+00   0.000000E+00   0.000000E+00
   0.000000E+00   0.110464E+05   0.000000E+00
   0.110464E+05   0.248436E+04   0.000000E+00
   0.000000E+00   0.000000E+00   0.000000E+00
   0.000000E+00   0.523138E+06   0.000000E+00
   0.523138E+06   0.276635E+04   0.000000E+00
   0.000000E+00   0.000000E+00   0.000000E+00
   0.000000E+00   0.582948E+06   0.000000E+00
   0.582948E+06   0.276208E+04   0.000000E+00
   0.000000E+00   0.000000E+00   0.000000E+00
