# vtk DataFile Version 3.0
Particle data
ASCII
DATASET POLYDATA
POINTS 4 float
   0.731593E+00   0.194367E+01   0.000000E+00
   0.786905E+00   0.194367E+01   0.000000E+00
   0.731593E+00   0.190416E+01   0.000000E+00
   0.786905E+00   0.190416E+01   0.000000E+00
POINT_DATA 4
VECTORS velocity float
   0.690251-309   0.690251-309   0.000000E+00
   0.000000E+00   0.000000E+00   0.000000E+00
   0.170000E+01   0.180000E+01   0.000000E+00
   0.190000E+01   0.200000E+01   0.000000E+00
SCALARS volume float 1
LOOKUP_TABLE default
   0.100000E-11
   0.100000E-11
   0.100000E-11
   0.100000E-11
TENSORS stress float
   0.807147E+01   0.000000E+00   0.000000E+00
   0.000000E+00   0.223147E+04   0.000000E+00
   0.000000E+00   0.000000E+00   0.000000E+00
   0.760747E+01   0.913383E+04   0.000000E+00
   0.913383E+04   0.223908E+04   0.000000E+00
   0.000000E+00   0.000000E+00   0.000000E+00
   0.807147E+01   0.000000E+00   0.000000E+00
   0.000000E+00   0.250327E+04   0.000000E+00
   0.000000E+00   0.000000E+00   0.000000E+00
   0.760747E+01   0.249752E+05   0.000000E+00
   0.249752E+05   0.251925E+04   0.000000E+00
   0.000000E+00   0.000000E+00   0.000000E+00
