# vtk DataFile Version 3.0
Particle data
ASCII
DATASET POLYDATA
POINTS 4 float
   0.282530E+01   0.189456E+01   0.000000E+00
   0.287254E+01   0.189456E+01   0.000000E+00
   0.282530E+01   0.185504E+01   0.000000E+00
   0.287254E+01   0.185504E+01   0.000000E+00
POINT_DATA 4
VECTORS velocity float
   0.690251-309   0.690251-309   0.000000E+00
   0.000000E+00   0.000000E+00   0.000000E+00
   0.170000E+01   0.180000E+01   0.000000E+00
   0.190000E+01   0.200000E+01   0.000000E+00
SCALARS volume float 1
LOOKUP_TABLE default
   0.100000E-11
   0.100000E-11
   0.100000E-11
   0.100000E-11
TENSORS stress float
   0.000000E+00   0.713684E+04   0.000000E+00
   0.713684E+04   0.249681E+04   0.000000E+00
   0.000000E+00   0.000000E+00   0.000000E+00
   0.000000E+00   0.109860E+05   0.000000E+00
   0.109860E+05   0.248417E+04   0.000000E+00
   0.000000E+00   0.000000E+00   0.000000E+00
   0.000000E+00   0.523078E+06   0.000000E+00
   0.523078E+06   0.276616E+04   0.000000E+00
   0.000000E+00   0.000000E+00   0.000000E+00
   0.000000E+00   0.582887E+06   0.000000E+00
   0.582887E+06   0.276189E+04   0.000000E+00
   0.000000E+00   0.000000E+00   0.000000E+00
