# vtk DataFile Version 3.0
Particle data
ASCII
DATASET POLYDATA
POINTS 4 float
   0.567738E+00   0.196339E+01   0.000000E+00
   0.621910E+00   0.196339E+01   0.000000E+00
   0.567738E+00   0.192438E+01   0.000000E+00
   0.621910E+00   0.192438E+01   0.000000E+00
POINT_DATA 4
VECTORS velocity float
   0.690251-309   0.690251-309   0.000000E+00
   0.000000E+00   0.000000E+00   0.000000E+00
   0.170000E+01   0.180000E+01   0.000000E+00
   0.190000E+01   0.200000E+01   0.000000E+00
SCALARS volume float 1
LOOKUP_TABLE default
   0.100000E-11
   0.100000E-11
   0.100000E-11
   0.100000E-11
TENSORS stress float
   0.439433E+01   0.294008E+03   0.000000E+00
   0.294008E+03   0.127298E+04   0.000000E+00
   0.000000E+00   0.000000E+00   0.000000E+00
   0.898373E+01   0.119415E+05   0.000000E+00
   0.119415E+05   0.128075E+04   0.000000E+00
   0.000000E+00   0.000000E+00   0.000000E+00
   0.439433E+01   0.119001E+05   0.000000E+00
   0.119001E+05   0.154479E+04   0.000000E+00
   0.000000E+00   0.000000E+00   0.000000E+00
   0.898373E+01   0.277829E+05   0.000000E+00
   0.277829E+05   0.156093E+04   0.000000E+00
   0.000000E+00   0.000000E+00   0.000000E+00
