# vtk DataFile Version 3.0
Particle data
ASCII
DATASET POLYDATA
POINTS 4 float
   0.323915E+01   0.187736E+01   0.000000E+00
   0.328638E+01   0.187736E+01   0.000000E+00
   0.323915E+01   0.183830E+01   0.000000E+00
   0.328638E+01   0.183830E+01   0.000000E+00
POINT_DATA 4
VECTORS velocity float
   0.690251-309   0.690251-309   0.000000E+00
   0.000000E+00   0.000000E+00   0.000000E+00
   0.170000E+01   0.180000E+01   0.000000E+00
   0.190000E+01   0.200000E+01   0.000000E+00
SCALARS volume float 1
LOOKUP_TABLE default
   0.100000E-11
   0.100000E-11
   0.100000E-11
   0.100000E-11
TENSORS stress float
   0.275973E+00   0.144009E+05   0.000000E+00
   0.144009E+05   0.301294E+04   0.000000E+00
   0.000000E+00   0.000000E+00   0.000000E+00
   0.275973E+00   0.341277E+05   0.000000E+00
   0.341277E+05   0.300031E+04   0.000000E+00
   0.000000E+00   0.000000E+00   0.000000E+00
   0.275973E+00   0.530342E+06   0.000000E+00
   0.530342E+06   0.328229E+04   0.000000E+00
   0.000000E+00   0.000000E+00   0.000000E+00
   0.275973E+00   0.606029E+06   0.000000E+00
   0.606029E+06   0.327804E+04   0.000000E+00
   0.000000E+00   0.000000E+00   0.000000E+00
