# vtk DataFile Version 3.0
Particle data
ASCII
DATASET POLYDATA
POINTS 4 float
   0.330047E+01   0.187469E+01   0.000000E+00
   0.334773E+01   0.187469E+01   0.000000E+00
   0.330047E+01   0.183568E+01   0.000000E+00
   0.334773E+01   0.183568E+01   0.000000E+00
POINT_DATA 4
VECTORS velocity float
   0.690251-309   0.690251-309   0.000000E+00
   0.000000E+00   0.000000E+00   0.000000E+00
   0.170000E+01   0.180000E+01   0.000000E+00
   0.190000E+01   0.200000E+01   0.000000E+00
SCALARS volume float 1
LOOKUP_TABLE default
   0.100000E-11
   0.100000E-11
   0.100000E-11
   0.100000E-11
TENSORS stress float
   0.430054E+00   0.137326E+05   0.000000E+00
   0.137326E+05   0.311255E+04   0.000000E+00
   0.000000E+00   0.000000E+00   0.000000E+00
   0.266747E+00   0.366119E+05   0.000000E+00
   0.366119E+05   0.309993E+04   0.000000E+00
   0.000000E+00   0.000000E+00   0.000000E+00
   0.430054E+00   0.529674E+06   0.000000E+00
   0.529674E+06   0.338191E+04   0.000000E+00
   0.000000E+00   0.000000E+00   0.000000E+00
   0.266747E+00   0.608513E+06   0.000000E+00
   0.608513E+06   0.337766E+04   0.000000E+00
   0.000000E+00   0.000000E+00   0.000000E+00
