# vtk DataFile Version 3.0
Particle data
ASCII
DATASET POLYDATA
POINTS 4 float
   0.783656E+00   0.193930E+01   0.000000E+00
   0.837886E+00   0.193930E+01   0.000000E+00
   0.783656E+00   0.189940E+01   0.000000E+00
   0.837886E+00   0.189940E+01   0.000000E+00
POINT_DATA 4
VECTORS velocity float
   0.690251-309   0.690251-309   0.000000E+00
   0.000000E+00   0.000000E+00   0.000000E+00
   0.170000E+01   0.180000E+01   0.000000E+00
   0.190000E+01   0.200000E+01   0.000000E+00
SCALARS volume float 1
LOOKUP_TABLE default
   0.100000E-11
   0.100000E-11
   0.100000E-11
   0.100000E-11
TENSORS stress float
   0.000000E+00   0.000000E+00   0.000000E+00
   0.000000E+00   0.230283E+04   0.000000E+00
   0.000000E+00   0.000000E+00   0.000000E+00
   0.000000E+00   0.700690E+04   0.000000E+00
   0.700690E+04   0.230588E+04   0.000000E+00
   0.000000E+00   0.000000E+00   0.000000E+00
   0.000000E+00   0.279465E+06   0.000000E+00
   0.279465E+06   0.257233E+04   0.000000E+00
   0.000000E+00   0.000000E+00   0.000000E+00
   0.000000E+00   0.303004E+06   0.000000E+00
   0.303004E+06   0.258376E+04   0.000000E+00
   0.000000E+00   0.000000E+00   0.000000E+00
