# vtk DataFile Version 3.0
Particle data
ASCII
DATASET POLYDATA
POINTS 4 float
   0.318628E+01   0.187935E+01   0.000000E+00
   0.323288E+01   0.187935E+01   0.000000E+00
   0.318628E+01   0.184028E+01   0.000000E+00
   0.323288E+01   0.184028E+01   0.000000E+00
POINT_DATA 4
VECTORS velocity float
   0.690251-309   0.690251-309   0.000000E+00
   0.000000E+00   0.000000E+00   0.000000E+00
   0.170000E+01   0.180000E+01   0.000000E+00
   0.190000E+01   0.200000E+01   0.000000E+00
SCALARS volume float 1
LOOKUP_TABLE default
   0.100000E-11
   0.100000E-11
   0.100000E-11
   0.100000E-11
TENSORS stress float
   0.000000E+00   0.144706E+05   0.000000E+00
   0.144706E+05   0.296666E+04   0.000000E+00
   0.000000E+00   0.000000E+00   0.000000E+00
   0.000000E+00   0.329336E+05   0.000000E+00
   0.329336E+05   0.295407E+04   0.000000E+00
   0.000000E+00   0.000000E+00   0.000000E+00
   0.000000E+00   0.530412E+06   0.000000E+00
   0.530412E+06   0.323601E+04   0.000000E+00
   0.000000E+00   0.000000E+00   0.000000E+00
   0.000000E+00   0.604835E+06   0.000000E+00
   0.604835E+06   0.323179E+04   0.000000E+00
   0.000000E+00   0.000000E+00   0.000000E+00
