# vtk DataFile Version 3.0
Particle data
ASCII
DATASET POLYDATA
POINTS 4 float
   0.323181E+01   0.187761E+01   0.000000E+00
   0.327904E+01   0.187761E+01   0.000000E+00
   0.323181E+01   0.183856E+01   0.000000E+00
   0.327904E+01   0.183856E+01   0.000000E+00
POINT_DATA 4
VECTORS velocity float
   0.690251-309   0.690251-309   0.000000E+00
   0.000000E+00   0.000000E+00   0.000000E+00
   0.170000E+01   0.180000E+01   0.000000E+00
   0.190000E+01   0.200000E+01   0.000000E+00
SCALARS volume float 1
LOOKUP_TABLE default
   0.100000E-11
   0.100000E-11
   0.100000E-11
   0.100000E-11
TENSORS stress float
   0.254251E+00   0.142961E+05   0.000000E+00
   0.142961E+05   0.301146E+04   0.000000E+00
   0.000000E+00   0.000000E+00   0.000000E+00
   0.254251E+00   0.340229E+05   0.000000E+00
   0.340229E+05   0.299884E+04   0.000000E+00
   0.000000E+00   0.000000E+00   0.000000E+00
   0.254251E+00   0.530237E+06   0.000000E+00
   0.530237E+06   0.328081E+04   0.000000E+00
   0.000000E+00   0.000000E+00   0.000000E+00
   0.254251E+00   0.605924E+06   0.000000E+00
   0.605924E+06   0.327656E+04   0.000000E+00
   0.000000E+00   0.000000E+00   0.000000E+00
