# vtk DataFile Version 3.0
Particle data
ASCII
DATASET POLYDATA
POINTS 4 float
   0.719209E+00   0.194463E+01   0.000000E+00
   0.774526E+00   0.194463E+01   0.000000E+00
   0.719209E+00   0.190512E+01   0.000000E+00
   0.774526E+00   0.190512E+01   0.000000E+00
POINT_DATA 4
VECTORS velocity float
   0.690251-309   0.690251-309   0.000000E+00
   0.000000E+00   0.000000E+00   0.000000E+00
   0.170000E+01   0.180000E+01   0.000000E+00
   0.190000E+01   0.200000E+01   0.000000E+00
SCALARS volume float 1
LOOKUP_TABLE default
   0.100000E-11
   0.100000E-11
   0.100000E-11
   0.100000E-11
TENSORS stress float
   0.696727E+01   0.000000E+00   0.000000E+00
   0.000000E+00   0.222740E+04   0.000000E+00
   0.000000E+00   0.000000E+00   0.000000E+00
   0.650328E+01   0.975469E+04   0.000000E+00
   0.975469E+04   0.223501E+04   0.000000E+00
   0.000000E+00   0.000000E+00   0.000000E+00
   0.696727E+01   0.000000E+00   0.000000E+00
   0.000000E+00   0.249920E+04   0.000000E+00
   0.000000E+00   0.000000E+00   0.000000E+00
   0.650328E+01   0.255960E+05   0.000000E+00
   0.255960E+05   0.251518E+04   0.000000E+00
   0.000000E+00   0.000000E+00   0.000000E+00
