# vtk DataFile Version 3.0
Particle data
ASCII
DATASET POLYDATA
POINTS 4 float
   0.550462E+00   0.196650E+01   0.000000E+00
   0.604986E+00   0.196650E+01   0.000000E+00
   0.550462E+00   0.192753E+01   0.000000E+00
   0.604986E+00   0.192753E+01   0.000000E+00
POINT_DATA 4
VECTORS velocity float
   0.690251-309   0.690251-309   0.000000E+00
   0.000000E+00   0.000000E+00   0.000000E+00
   0.170000E+01   0.180000E+01   0.000000E+00
   0.190000E+01   0.200000E+01   0.000000E+00
SCALARS volume float 1
LOOKUP_TABLE default
   0.100000E-11
   0.100000E-11
   0.100000E-11
   0.100000E-11
TENSORS stress float
   0.158751E+02   0.670579E+03   0.000000E+00
   0.670579E+03   0.119678E+04   0.000000E+00
   0.000000E+00   0.000000E+00   0.000000E+00
   0.162293E+02   0.114472E+05   0.000000E+00
   0.114472E+05   0.120442E+04   0.000000E+00
   0.000000E+00   0.000000E+00   0.000000E+00
   0.158751E+02   0.122766E+05   0.000000E+00
   0.122766E+05   0.146859E+04   0.000000E+00
   0.000000E+00   0.000000E+00   0.000000E+00
   0.162293E+02   0.272885E+05   0.000000E+00
   0.272885E+05   0.148460E+04   0.000000E+00
   0.000000E+00   0.000000E+00   0.000000E+00
