# vtk DataFile Version 3.0
Particle data
ASCII
DATASET POLYDATA
POINTS 4 float
   0.759224E+00   0.194153E+01   0.000000E+00
   0.813759E+00   0.194153E+01   0.000000E+00
   0.759224E+00   0.190192E+01   0.000000E+00
   0.813759E+00   0.190192E+01   0.000000E+00
POINT_DATA 4
VECTORS velocity float
   0.690251-309   0.690251-309   0.000000E+00
   0.000000E+00   0.000000E+00   0.000000E+00
   0.170000E+01   0.180000E+01   0.000000E+00
   0.190000E+01   0.200000E+01   0.000000E+00
SCALARS volume float 1
LOOKUP_TABLE default
   0.100000E-11
   0.100000E-11
   0.100000E-11
   0.100000E-11
TENSORS stress float
   0.296832E+01   0.000000E+00   0.000000E+00
   0.000000E+00   0.230379E+04   0.000000E+00
   0.000000E+00   0.000000E+00   0.000000E+00
   0.513566E+01   0.889042E+04   0.000000E+00
   0.889042E+04   0.231148E+04   0.000000E+00
   0.000000E+00   0.000000E+00   0.000000E+00
   0.296832E+01   0.000000E+00   0.000000E+00
   0.000000E+00   0.257559E+04   0.000000E+00
   0.000000E+00   0.000000E+00   0.000000E+00
   0.513566E+01   0.247318E+05   0.000000E+00
   0.247318E+05   0.259166E+04   0.000000E+00
   0.000000E+00   0.000000E+00   0.000000E+00
