# vtk DataFile Version 3.0
Particle data
ASCII
DATASET POLYDATA
POINTS 4 float
   0.791937E+00   0.193857E+01   0.000000E+00
   0.847120E+00   0.193857E+01   0.000000E+00
   0.791937E+00   0.189856E+01   0.000000E+00
   0.847120E+00   0.189856E+01   0.000000E+00
POINT_DATA 4
VECTORS velocity float
   0.690251-309   0.690251-309   0.000000E+00
   0.000000E+00   0.000000E+00   0.000000E+00
   0.170000E+01   0.180000E+01   0.000000E+00
   0.190000E+01   0.200000E+01   0.000000E+00
SCALARS volume float 1
LOOKUP_TABLE default
   0.100000E-11
   0.100000E-11
   0.100000E-11
   0.100000E-11
TENSORS stress float
   0.000000E+00   0.000000E+00   0.000000E+00
   0.000000E+00   0.230956E+04   0.000000E+00
   0.000000E+00   0.000000E+00   0.000000E+00
   0.000000E+00   0.626564E+04   0.000000E+00
   0.626564E+04   0.231099E+04   0.000000E+00
   0.000000E+00   0.000000E+00   0.000000E+00
   0.000000E+00   0.324278E+06   0.000000E+00
   0.324278E+06   0.257518E+04   0.000000E+00
   0.000000E+00   0.000000E+00   0.000000E+00
   0.000000E+00   0.348233E+06   0.000000E+00
   0.348233E+06   0.258499E+04   0.000000E+00
   0.000000E+00   0.000000E+00   0.000000E+00
