# vtk DataFile Version 3.0
Particle data
ASCII
DATASET POLYDATA
POINTS 4 float
   0.597783E+00   0.195815E+01   0.000000E+00
   0.652685E+00   0.195815E+01   0.000000E+00
   0.597783E+00   0.191903E+01   0.000000E+00
   0.652685E+00   0.191903E+01   0.000000E+00
POINT_DATA 4
VECTORS velocity float
   0.690251-309   0.690251-309   0.000000E+00
   0.000000E+00   0.000000E+00   0.000000E+00
   0.170000E+01   0.180000E+01   0.000000E+00
   0.190000E+01   0.200000E+01   0.000000E+00
SCALARS volume float 1
LOOKUP_TABLE default
   0.100000E-11
   0.100000E-11
   0.100000E-11
   0.100000E-11
TENSORS stress float
   0.175012E+00   0.000000E+00   0.000000E+00
   0.000000E+00   0.139740E+04   0.000000E+00
   0.000000E+00   0.000000E+00   0.000000E+00
   0.000000E+00   0.114691E+05   0.000000E+00
   0.114691E+05   0.140502E+04   0.000000E+00
   0.000000E+00   0.000000E+00   0.000000E+00
   0.175012E+00   0.988615E+04   0.000000E+00
   0.988615E+04   0.166920E+04   0.000000E+00
   0.000000E+00   0.000000E+00   0.000000E+00
   0.000000E+00   0.273105E+05   0.000000E+00
   0.273105E+05   0.168520E+04   0.000000E+00
   0.000000E+00   0.000000E+00   0.000000E+00
