# vtk DataFile Version 3.0
Particle data
ASCII
DATASET POLYDATA
POINTS 4 float
   0.704127E+00   0.194584E+01   0.000000E+00
   0.759445E+00   0.194584E+01   0.000000E+00
   0.704127E+00   0.190633E+01   0.000000E+00
   0.759445E+00   0.190633E+01   0.000000E+00
POINT_DATA 4
VECTORS velocity float
   0.690251-309   0.690251-309   0.000000E+00
   0.000000E+00   0.000000E+00   0.000000E+00
   0.170000E+01   0.180000E+01   0.000000E+00
   0.190000E+01   0.200000E+01   0.000000E+00
SCALARS volume float 1
LOOKUP_TABLE default
   0.100000E-11
   0.100000E-11
   0.100000E-11
   0.100000E-11
TENSORS stress float
   0.675859E+01   0.000000E+00   0.000000E+00
   0.000000E+00   0.222175E+04   0.000000E+00
   0.000000E+00   0.000000E+00   0.000000E+00
   0.629459E+01   0.104446E+05   0.000000E+00
   0.104446E+05   0.222935E+04   0.000000E+00
   0.000000E+00   0.000000E+00   0.000000E+00
   0.675859E+01   0.000000E+00   0.000000E+00
   0.000000E+00   0.249355E+04   0.000000E+00
   0.000000E+00   0.000000E+00   0.000000E+00
   0.629459E+01   0.262859E+05   0.000000E+00
   0.262859E+05   0.250953E+04   0.000000E+00
   0.000000E+00   0.000000E+00   0.000000E+00
