# vtk DataFile Version 3.0
Particle data
ASCII
DATASET POLYDATA
POINTS 4 float
   0.534500E+00   0.196875E+01   0.000000E+00
   0.589133E+00   0.196875E+01   0.000000E+00
   0.534500E+00   0.192978E+01   0.000000E+00
   0.589133E+00   0.192978E+01   0.000000E+00
POINT_DATA 4
VECTORS velocity float
   0.690251-309   0.690251-309   0.000000E+00
   0.000000E+00   0.000000E+00   0.000000E+00
   0.170000E+01   0.180000E+01   0.000000E+00
   0.190000E+01   0.200000E+01   0.000000E+00
SCALARS volume float 1
LOOKUP_TABLE default
   0.100000E-11
   0.100000E-11
   0.100000E-11
   0.100000E-11
TENSORS stress float
   0.117440E+02   0.814403E+03   0.000000E+00
   0.814403E+03   0.978835E+03   0.000000E+00
   0.000000E+00   0.000000E+00   0.000000E+00
   0.109338E+02   0.887874E+04   0.000000E+00
   0.887874E+04   0.986435E+03   0.000000E+00
   0.000000E+00   0.000000E+00   0.000000E+00
   0.117440E+02   0.124205E+05   0.000000E+00
   0.124205E+05   0.125064E+04   0.000000E+00
   0.000000E+00   0.000000E+00   0.000000E+00
   0.109338E+02   0.247201E+05   0.000000E+00
   0.247201E+05   0.126661E+04   0.000000E+00
   0.000000E+00   0.000000E+00   0.000000E+00
