# vtk DataFile Version 3.0
Particle data
ASCII
DATASET POLYDATA
POINTS 4 float
   0.304857E+01   0.188533E+01   0.000000E+00
   0.309586E+01   0.188533E+01   0.000000E+00
   0.304857E+01   0.184612E+01   0.000000E+00
   0.309586E+01   0.184612E+01   0.000000E+00
POINT_DATA 4
VECTORS velocity float
   0.690251-309   0.690251-309   0.000000E+00
   0.000000E+00   0.000000E+00   0.000000E+00
   0.170000E+01   0.180000E+01   0.000000E+00
   0.190000E+01   0.200000E+01   0.000000E+00
SCALARS volume float 1
LOOKUP_TABLE default
   0.100000E-11
   0.100000E-11
   0.100000E-11
   0.100000E-11
TENSORS stress float
   0.109563E+01   0.118180E+05   0.000000E+00
   0.118180E+05   0.279948E+04   0.000000E+00
   0.000000E+00   0.000000E+00   0.000000E+00
   0.866102E+00   0.252882E+05   0.000000E+00
   0.252882E+05   0.278685E+04   0.000000E+00
   0.000000E+00   0.000000E+00   0.000000E+00
   0.109563E+01   0.527759E+06   0.000000E+00
   0.527759E+06   0.306883E+04   0.000000E+00
   0.000000E+00   0.000000E+00   0.000000E+00
   0.866102E+00   0.597189E+06   0.000000E+00
   0.597189E+06   0.306457E+04   0.000000E+00
   0.000000E+00   0.000000E+00   0.000000E+00
