# vtk DataFile Version 3.0
Particle data
ASCII
DATASET POLYDATA
POINTS 4 float
   0.283279E+01   0.189430E+01   0.000000E+00
   0.288003E+01   0.189430E+01   0.000000E+00
   0.283279E+01   0.185478E+01   0.000000E+00
   0.288003E+01   0.185478E+01   0.000000E+00
POINT_DATA 4
VECTORS velocity float
   0.690251-309   0.690251-309   0.000000E+00
   0.000000E+00   0.000000E+00   0.000000E+00
   0.170000E+01   0.180000E+01   0.000000E+00
   0.190000E+01   0.200000E+01   0.000000E+00
SCALARS volume float 1
LOOKUP_TABLE default
   0.100000E-11
   0.100000E-11
   0.100000E-11
   0.100000E-11
TENSORS stress float
   0.000000E+00   0.749418E+04   0.000000E+00
   0.749418E+04   0.249797E+04   0.000000E+00
   0.000000E+00   0.000000E+00   0.000000E+00
   0.000000E+00   0.113433E+05   0.000000E+00
   0.113433E+05   0.248533E+04   0.000000E+00
   0.000000E+00   0.000000E+00   0.000000E+00
   0.000000E+00   0.523435E+06   0.000000E+00
   0.523435E+06   0.276732E+04   0.000000E+00
   0.000000E+00   0.000000E+00   0.000000E+00
   0.000000E+00   0.583245E+06   0.000000E+00
   0.583245E+06   0.276305E+04   0.000000E+00
   0.000000E+00   0.000000E+00   0.000000E+00
