# vtk DataFile Version 3.0
Particle data
ASCII
DATASET POLYDATA
POINTS 4 float
   0.299193E+01   0.188742E+01   0.000000E+00
   0.303884E+01   0.188742E+01   0.000000E+00
   0.299193E+01   0.184820E+01   0.000000E+00
   0.303884E+01   0.184820E+01   0.000000E+00
POINT_DATA 4
VECTORS velocity float
   0.690251-309   0.690251-309   0.000000E+00
   0.000000E+00   0.000000E+00   0.000000E+00
   0.170000E+01   0.180000E+01   0.000000E+00
   0.190000E+01   0.200000E+01   0.000000E+00
SCALARS volume float 1
LOOKUP_TABLE default
   0.100000E-11
   0.100000E-11
   0.100000E-11
   0.100000E-11
TENSORS stress float
   0.000000E+00   0.140350E+05   0.000000E+00
   0.140350E+05   0.266917E+04   0.000000E+00
   0.000000E+00   0.000000E+00   0.000000E+00
   0.000000E+00   0.231953E+05   0.000000E+00
   0.231953E+05   0.265657E+04   0.000000E+00
   0.000000E+00   0.000000E+00   0.000000E+00
   0.000000E+00   0.529976E+06   0.000000E+00
   0.529976E+06   0.293852E+04   0.000000E+00
   0.000000E+00   0.000000E+00   0.000000E+00
   0.000000E+00   0.595097E+06   0.000000E+00
   0.595097E+06   0.293429E+04   0.000000E+00
   0.000000E+00   0.000000E+00   0.000000E+00
