# vtk DataFile Version 3.0
Particle data
ASCII
DATASET POLYDATA
POINTS 4 float
   0.843971E+00   0.193554E+01   0.000000E+00
   0.899531E+00   0.193554E+01   0.000000E+00
   0.843971E+00   0.189560E+01   0.000000E+00
   0.899531E+00   0.189560E+01   0.000000E+00
POINT_DATA 4
VECTORS velocity float
   0.690251-309   0.690251-309   0.000000E+00
   0.000000E+00   0.000000E+00   0.000000E+00
   0.170000E+01   0.180000E+01   0.000000E+00
   0.190000E+01   0.200000E+01   0.000000E+00
SCALARS volume float 1
LOOKUP_TABLE default
   0.100000E-11
   0.100000E-11
   0.100000E-11
   0.100000E-11
TENSORS stress float
   0.000000E+00   0.000000E+00   0.000000E+00
   0.000000E+00   0.235114E+04   0.000000E+00
   0.000000E+00   0.000000E+00   0.000000E+00
   0.000000E+00   0.288905E+04   0.000000E+00
   0.288905E+04   0.235163E+04   0.000000E+00
   0.000000E+00   0.000000E+00   0.000000E+00
   0.000000E+00   0.385993E+06   0.000000E+00
   0.385993E+06   0.260067E+04   0.000000E+00
   0.000000E+00   0.000000E+00   0.000000E+00
   0.000000E+00   0.411939E+06   0.000000E+00
   0.411939E+06   0.260953E+04   0.000000E+00
   0.000000E+00   0.000000E+00   0.000000E+00
