# vtk DataFile Version 3.0
Particle data
ASCII
DATASET POLYDATA
POINTS 4 float
   0.654523E+00   0.195188E+01   0.000000E+00
   0.709091E+00   0.195188E+01   0.000000E+00
   0.654523E+00   0.191273E+01   0.000000E+00
   0.709091E+00   0.191273E+01   0.000000E+00
POINT_DATA 4
VECTORS velocity float
   0.690251-309   0.690251-309   0.000000E+00
   0.000000E+00   0.000000E+00   0.000000E+00
   0.170000E+01   0.180000E+01   0.000000E+00
   0.190000E+01   0.200000E+01   0.000000E+00
SCALARS volume float 1
LOOKUP_TABLE default
   0.100000E-11
   0.100000E-11
   0.100000E-11
   0.100000E-11
TENSORS stress float
   0.128211E+02   0.000000E+00   0.000000E+00
   0.000000E+00   0.185420E+04   0.000000E+00
   0.000000E+00   0.000000E+00   0.000000E+00
   0.141181E+02   0.127904E+05   0.000000E+00
   0.127904E+05   0.186187E+04   0.000000E+00
   0.000000E+00   0.000000E+00   0.000000E+00
   0.128211E+02   0.422760E+04   0.000000E+00
   0.422760E+04   0.212600E+04   0.000000E+00
   0.000000E+00   0.000000E+00   0.000000E+00
   0.141181E+02   0.286318E+05   0.000000E+00
   0.286318E+05   0.214204E+04   0.000000E+00
   0.000000E+00   0.000000E+00   0.000000E+00
