# vtk DataFile Version 3.0
Particle data
ASCII
DATASET POLYDATA
POINTS 4 float
   0.309544E+01   0.188306E+01   0.000000E+00
   0.314256E+01   0.188306E+01   0.000000E+00
   0.309544E+01   0.184394E+01   0.000000E+00
   0.314256E+01   0.184394E+01   0.000000E+00
POINT_DATA 4
VECTORS velocity float
   0.690251-309   0.690251-309   0.000000E+00
   0.000000E+00   0.000000E+00   0.000000E+00
   0.170000E+01   0.180000E+01   0.000000E+00
   0.190000E+01   0.200000E+01   0.000000E+00
SCALARS volume float 1
LOOKUP_TABLE default
   0.100000E-11
   0.100000E-11
   0.100000E-11
   0.100000E-11
TENSORS stress float
   0.000000E+00   0.130683E+05   0.000000E+00
   0.130683E+05   0.287827E+04   0.000000E+00
   0.000000E+00   0.000000E+00   0.000000E+00
   0.000000E+00   0.290369E+05   0.000000E+00
   0.290369E+05   0.286566E+04   0.000000E+00
   0.000000E+00   0.000000E+00   0.000000E+00
   0.000000E+00   0.529009E+06   0.000000E+00
   0.529009E+06   0.314762E+04   0.000000E+00
   0.000000E+00   0.000000E+00   0.000000E+00
   0.000000E+00   0.600938E+06   0.000000E+00
   0.600938E+06   0.314338E+04   0.000000E+00
   0.000000E+00   0.000000E+00   0.000000E+00
