# vtk DataFile Version 3.0
Particle data
ASCII
DATASET POLYDATA
POINTS 4 float
   0.315620E+01   0.188085E+01   0.000000E+00
   0.320342E+01   0.188085E+01   0.000000E+00
   0.315620E+01   0.184174E+01   0.000000E+00
   0.320342E+01   0.184174E+01   0.000000E+00
POINT_DATA 4
VECTORS velocity float
   0.690251-309   0.690251-309   0.000000E+00
   0.000000E+00   0.000000E+00   0.000000E+00
   0.170000E+01   0.180000E+01   0.000000E+00
   0.190000E+01   0.200000E+01   0.000000E+00
SCALARS volume float 1
LOOKUP_TABLE default
   0.100000E-11
   0.100000E-11
   0.100000E-11
   0.100000E-11
TENSORS stress float
   0.000000E+00   0.138637E+05   0.000000E+00
   0.138637E+05   0.292939E+04   0.000000E+00
   0.000000E+00   0.000000E+00   0.000000E+00
   0.224119E+00   0.311949E+05   0.000000E+00
   0.311949E+05   0.291677E+04   0.000000E+00
   0.000000E+00   0.000000E+00   0.000000E+00
   0.000000E+00   0.529805E+06   0.000000E+00
   0.529805E+06   0.319874E+04   0.000000E+00
   0.000000E+00   0.000000E+00   0.000000E+00
   0.224119E+00   0.603096E+06   0.000000E+00
   0.603096E+06   0.319449E+04   0.000000E+00
   0.000000E+00   0.000000E+00   0.000000E+00
