# vtk DataFile Version 3.0
Particle data
ASCII
DATASET POLYDATA
POINTS 4 float
   0.576715E+00   0.196164E+01   0.000000E+00
   0.630928E+00   0.196164E+01   0.000000E+00
   0.576715E+00   0.192263E+01   0.000000E+00
   0.630928E+00   0.192263E+01   0.000000E+00
POINT_DATA 4
VECTORS velocity float
   0.690251-309   0.690251-309   0.000000E+00
   0.000000E+00   0.000000E+00   0.000000E+00
   0.170000E+01   0.180000E+01   0.000000E+00
   0.190000E+01   0.200000E+01   0.000000E+00
SCALARS volume float 1
LOOKUP_TABLE default
   0.100000E-11
   0.100000E-11
   0.100000E-11
   0.100000E-11
TENSORS stress float
   0.000000E+00   0.000000E+00   0.000000E+00
   0.000000E+00   0.129823E+04   0.000000E+00
   0.000000E+00   0.000000E+00   0.000000E+00
   0.236314E+01   0.118998E+05   0.000000E+00
   0.118998E+05   0.130600E+04   0.000000E+00
   0.000000E+00   0.000000E+00   0.000000E+00
   0.000000E+00   0.115872E+05   0.000000E+00
   0.115872E+05   0.157003E+04   0.000000E+00
   0.000000E+00   0.000000E+00   0.000000E+00
   0.236314E+01   0.277411E+05   0.000000E+00
   0.277411E+05   0.158617E+04   0.000000E+00
   0.000000E+00   0.000000E+00   0.000000E+00
