# vtk DataFile Version 3.0
Particle data
ASCII
DATASET POLYDATA
POINTS 4 float
   0.728735E+00   0.194389E+01   0.000000E+00
   0.784048E+00   0.194389E+01   0.000000E+00
   0.728735E+00   0.190438E+01   0.000000E+00
   0.784048E+00   0.190438E+01   0.000000E+00
POINT_DATA 4
VECTORS velocity float
   0.690251-309   0.690251-309   0.000000E+00
   0.000000E+00   0.000000E+00   0.000000E+00
   0.170000E+01   0.180000E+01   0.000000E+00
   0.190000E+01   0.200000E+01   0.000000E+00
SCALARS volume float 1
LOOKUP_TABLE default
   0.100000E-11
   0.100000E-11
   0.100000E-11
   0.100000E-11
TENSORS stress float
   0.788795E+01   0.000000E+00   0.000000E+00
   0.000000E+00   0.223055E+04   0.000000E+00
   0.000000E+00   0.000000E+00   0.000000E+00
   0.742396E+01   0.928126E+04   0.000000E+00
   0.928126E+04   0.223816E+04   0.000000E+00
   0.000000E+00   0.000000E+00   0.000000E+00
   0.788795E+01   0.000000E+00   0.000000E+00
   0.000000E+00   0.250235E+04   0.000000E+00
   0.000000E+00   0.000000E+00   0.000000E+00
   0.742396E+01   0.251226E+05   0.000000E+00
   0.251226E+05   0.251833E+04   0.000000E+00
   0.000000E+00   0.000000E+00   0.000000E+00
