# vtk DataFile Version 3.0
Particle data
ASCII
DATASET POLYDATA
POINTS 4 float
   0.292308E+01   0.189048E+01   0.000000E+00
   0.297034E+01   0.189048E+01   0.000000E+00
   0.292308E+01   0.185114E+01   0.000000E+00
   0.297034E+01   0.185114E+01   0.000000E+00
POINT_DATA 4
VECTORS velocity float
   0.690251-309   0.690251-309   0.000000E+00
   0.000000E+00   0.000000E+00   0.000000E+00
   0.170000E+01   0.180000E+01   0.000000E+00
   0.190000E+01   0.200000E+01   0.000000E+00
SCALARS volume float 1
LOOKUP_TABLE default
   0.100000E-11
   0.100000E-11
   0.100000E-11
   0.100000E-11
TENSORS stress float
   0.000000E+00   0.112345E+05   0.000000E+00
   0.112345E+05   0.258406E+04   0.000000E+00
   0.000000E+00   0.000000E+00   0.000000E+00
   0.000000E+00   0.177507E+05   0.000000E+00
   0.177507E+05   0.257143E+04   0.000000E+00
   0.000000E+00   0.000000E+00   0.000000E+00
   0.000000E+00   0.527175E+06   0.000000E+00
   0.527175E+06   0.285342E+04   0.000000E+00
   0.000000E+00   0.000000E+00   0.000000E+00
   0.000000E+00   0.589652E+06   0.000000E+00
   0.589652E+06   0.284915E+04   0.000000E+00
   0.000000E+00   0.000000E+00   0.000000E+00
