# vtk DataFile Version 3.0
Particle data
ASCII
DATASET POLYDATA
POINTS 4 float
   0.718657E+00   0.194467E+01   0.000000E+00
   0.773975E+00   0.194467E+01   0.000000E+00
   0.718657E+00   0.190516E+01   0.000000E+00
   0.773975E+00   0.190516E+01   0.000000E+00
POINT_DATA 4
VECTORS velocity float
   0.690251-309   0.690251-309   0.000000E+00
   0.000000E+00   0.000000E+00   0.000000E+00
   0.170000E+01   0.180000E+01   0.000000E+00
   0.190000E+01   0.200000E+01   0.000000E+00
SCALARS volume float 1
LOOKUP_TABLE default
   0.100000E-11
   0.100000E-11
   0.100000E-11
   0.100000E-11
TENSORS stress float
   0.691407E+01   0.000000E+00   0.000000E+00
   0.000000E+00   0.222721E+04   0.000000E+00
   0.000000E+00   0.000000E+00   0.000000E+00
   0.645008E+01   0.978124E+04   0.000000E+00
   0.978124E+04   0.223482E+04   0.000000E+00
   0.000000E+00   0.000000E+00   0.000000E+00
   0.691407E+01   0.000000E+00   0.000000E+00
   0.000000E+00   0.249901E+04   0.000000E+00
   0.000000E+00   0.000000E+00   0.000000E+00
   0.645008E+01   0.256226E+05   0.000000E+00
   0.256226E+05   0.251499E+04   0.000000E+00
   0.000000E+00   0.000000E+00   0.000000E+00
