# vtk DataFile Version 3.0
Particle data
ASCII
DATASET POLYDATA
POINTS 4 float
   0.609943E+00   0.195672E+01   0.000000E+00
   0.664884E+00   0.195672E+01   0.000000E+00
   0.609943E+00   0.191760E+01   0.000000E+00
   0.664884E+00   0.191760E+01   0.000000E+00
POINT_DATA 4
VECTORS velocity float
   0.690251-309   0.690251-309   0.000000E+00
   0.000000E+00   0.000000E+00   0.000000E+00
   0.170000E+01   0.180000E+01   0.000000E+00
   0.190000E+01   0.200000E+01   0.000000E+00
SCALARS volume float 1
LOOKUP_TABLE default
   0.100000E-11
   0.100000E-11
   0.100000E-11
   0.100000E-11
TENSORS stress float
   0.691192E+01   0.000000E+00   0.000000E+00
   0.000000E+00   0.165385E+04   0.000000E+00
   0.000000E+00   0.000000E+00   0.000000E+00
   0.623825E+01   0.112057E+05   0.000000E+00
   0.112057E+05   0.166145E+04   0.000000E+00
   0.000000E+00   0.000000E+00   0.000000E+00
   0.691192E+01   0.579759E+04   0.000000E+00
   0.579759E+04   0.192565E+04   0.000000E+00
   0.000000E+00   0.000000E+00   0.000000E+00
   0.623825E+01   0.270470E+05   0.000000E+00
   0.270470E+05   0.194163E+04   0.000000E+00
   0.000000E+00   0.000000E+00   0.000000E+00
