# vtk DataFile Version 3.0
Particle data
ASCII
DATASET POLYDATA
POINTS 4 float
   0.721981E+00   0.194441E+01   0.000000E+00
   0.777297E+00   0.194441E+01   0.000000E+00
   0.721981E+00   0.190490E+01   0.000000E+00
   0.777297E+00   0.190490E+01   0.000000E+00
POINT_DATA 4
VECTORS velocity float
   0.690251-309   0.690251-309   0.000000E+00
   0.000000E+00   0.000000E+00   0.000000E+00
   0.170000E+01   0.180000E+01   0.000000E+00
   0.190000E+01   0.200000E+01   0.000000E+00
SCALARS volume float 1
LOOKUP_TABLE default
   0.100000E-11
   0.100000E-11
   0.100000E-11
   0.100000E-11
TENSORS stress float
   0.724752E+01   0.000000E+00   0.000000E+00
   0.000000E+00   0.222833E+04   0.000000E+00
   0.000000E+00   0.000000E+00   0.000000E+00
   0.678352E+01   0.961979E+04   0.000000E+00
   0.961979E+04   0.223594E+04   0.000000E+00
   0.000000E+00   0.000000E+00   0.000000E+00
   0.724752E+01   0.000000E+00   0.000000E+00
   0.000000E+00   0.250014E+04   0.000000E+00
   0.000000E+00   0.000000E+00   0.000000E+00
   0.678352E+01   0.254611E+05   0.000000E+00
   0.254611E+05   0.251612E+04   0.000000E+00
   0.000000E+00   0.000000E+00   0.000000E+00
