# vtk DataFile Version 3.0
Particle data
ASCII
DATASET POLYDATA
POINTS 4 float
   0.805448E+00   0.193771E+01   0.000000E+00
   0.860996E+00   0.193771E+01   0.000000E+00
   0.805448E+00   0.189769E+01   0.000000E+00
   0.860996E+00   0.189769E+01   0.000000E+00
POINT_DATA 4
VECTORS velocity float
   0.690251-309   0.690251-309   0.000000E+00
   0.000000E+00   0.000000E+00   0.000000E+00
   0.170000E+01   0.180000E+01   0.000000E+00
   0.190000E+01   0.200000E+01   0.000000E+00
SCALARS volume float 1
LOOKUP_TABLE default
   0.100000E-11
   0.100000E-11
   0.100000E-11
   0.100000E-11
TENSORS stress float
   0.000000E+00   0.000000E+00   0.000000E+00
   0.000000E+00   0.234649E+04   0.000000E+00
   0.000000E+00   0.000000E+00   0.000000E+00
   0.000000E+00   0.525418E+04   0.000000E+00
   0.525418E+04   0.234697E+04   0.000000E+00
   0.000000E+00   0.000000E+00   0.000000E+00
   0.000000E+00   0.352148E+06   0.000000E+00
   0.352148E+06   0.259787E+04   0.000000E+00
   0.000000E+00   0.000000E+00   0.000000E+00
   0.000000E+00   0.378093E+06   0.000000E+00
   0.378093E+06   0.260673E+04   0.000000E+00
   0.000000E+00   0.000000E+00   0.000000E+00
