# vtk DataFile Version 3.0
Particle data
ASCII
DATASET POLYDATA
POINTS 4 float
   0.326003E+01   0.187662E+01   0.000000E+00
   0.330705E+01   0.187662E+01   0.000000E+00
   0.326003E+01   0.183757E+01   0.000000E+00
   0.330705E+01   0.183757E+01   0.000000E+00
POINT_DATA 4
VECTORS velocity float
   0.690251-309   0.690251-309   0.000000E+00
   0.000000E+00   0.000000E+00   0.000000E+00
   0.170000E+01   0.180000E+01   0.000000E+00
   0.190000E+01   0.200000E+01   0.000000E+00
SCALARS volume float 1
LOOKUP_TABLE default
   0.100000E-11
   0.100000E-11
   0.100000E-11
   0.100000E-11
TENSORS stress float
   0.000000E+00   0.146638E+05   0.000000E+00
   0.146638E+05   0.304197E+04   0.000000E+00
   0.000000E+00   0.000000E+00   0.000000E+00
   0.000000E+00   0.352691E+05   0.000000E+00
   0.352691E+05   0.302937E+04   0.000000E+00
   0.000000E+00   0.000000E+00   0.000000E+00
   0.000000E+00   0.530605E+06   0.000000E+00
   0.530605E+06   0.331132E+04   0.000000E+00
   0.000000E+00   0.000000E+00   0.000000E+00
   0.000000E+00   0.607170E+06   0.000000E+00
   0.607170E+06   0.330709E+04   0.000000E+00
   0.000000E+00   0.000000E+00   0.000000E+00
