# vtk DataFile Version 3.0
Particle data
ASCII
DATASET POLYDATA
POINTS 4 float
   0.319779E+01   0.187883E+01   0.000000E+00
   0.324497E+01   0.187883E+01   0.000000E+00
   0.319779E+01   0.183977E+01   0.000000E+00
   0.324497E+01   0.183977E+01   0.000000E+00
POINT_DATA 4
VECTORS velocity float
   0.690251-309   0.690251-309   0.000000E+00
   0.000000E+00   0.000000E+00   0.000000E+00
   0.170000E+01   0.180000E+01   0.000000E+00
   0.190000E+01   0.200000E+01   0.000000E+00
SCALARS volume float 1
LOOKUP_TABLE default
   0.100000E-11
   0.100000E-11
   0.100000E-11
   0.100000E-11
TENSORS stress float
   0.000000E+00   0.142373E+05   0.000000E+00
   0.142373E+05   0.298718E+04   0.000000E+00
   0.000000E+00   0.000000E+00   0.000000E+00
   0.000000E+00   0.333536E+05   0.000000E+00
   0.333536E+05   0.297457E+04   0.000000E+00
   0.000000E+00   0.000000E+00   0.000000E+00
   0.000000E+00   0.530178E+06   0.000000E+00
   0.530178E+06   0.325653E+04   0.000000E+00
   0.000000E+00   0.000000E+00   0.000000E+00
   0.000000E+00   0.605255E+06   0.000000E+00
   0.605255E+06   0.325229E+04   0.000000E+00
   0.000000E+00   0.000000E+00   0.000000E+00
