# vtk DataFile Version 3.0
Particle data
ASCII
DATASET POLYDATA
POINTS 4 float
   0.288092E+01   0.189226E+01   0.000000E+00
   0.292671E+01   0.189226E+01   0.000000E+00
   0.288092E+01   0.185283E+01   0.000000E+00
   0.292671E+01   0.185283E+01   0.000000E+00
POINT_DATA 4
VECTORS velocity float
   0.690251-309   0.690251-309   0.000000E+00
   0.000000E+00   0.000000E+00   0.000000E+00
   0.170000E+01   0.180000E+01   0.000000E+00
   0.190000E+01   0.200000E+01   0.000000E+00
SCALARS volume float 1
LOOKUP_TABLE default
   0.100000E-11
   0.100000E-11
   0.100000E-11
   0.100000E-11
TENSORS stress float
   0.000000E+00   0.100539E+05   0.000000E+00
   0.100539E+05   0.254197E+04   0.000000E+00
   0.000000E+00   0.000000E+00   0.000000E+00
   0.000000E+00   0.152779E+05   0.000000E+00
   0.152779E+05   0.252939E+04   0.000000E+00
   0.000000E+00   0.000000E+00   0.000000E+00
   0.000000E+00   0.525995E+06   0.000000E+00
   0.525995E+06   0.281132E+04   0.000000E+00
   0.000000E+00   0.000000E+00   0.000000E+00
   0.000000E+00   0.587179E+06   0.000000E+00
   0.587179E+06   0.280711E+04   0.000000E+00
   0.000000E+00   0.000000E+00   0.000000E+00
