# vtk DataFile Version 3.0
Particle data
ASCII
DATASET POLYDATA
POINTS 4 float
   0.282405E+01   0.189460E+01   0.000000E+00
   0.287129E+01   0.189460E+01   0.000000E+00
   0.282405E+01   0.185508E+01   0.000000E+00
   0.287129E+01   0.185508E+01   0.000000E+00
POINT_DATA 4
VECTORS velocity float
   0.690251-309   0.690251-309   0.000000E+00
   0.000000E+00   0.000000E+00   0.000000E+00
   0.170000E+01   0.180000E+01   0.000000E+00
   0.190000E+01   0.200000E+01   0.000000E+00
SCALARS volume float 1
LOOKUP_TABLE default
   0.100000E-11
   0.100000E-11
   0.100000E-11
   0.100000E-11
TENSORS stress float
   0.000000E+00   0.707614E+04   0.000000E+00
   0.707614E+04   0.249661E+04   0.000000E+00
   0.000000E+00   0.000000E+00   0.000000E+00
   0.000000E+00   0.109253E+05   0.000000E+00
   0.109253E+05   0.248398E+04   0.000000E+00
   0.000000E+00   0.000000E+00   0.000000E+00
   0.000000E+00   0.523017E+06   0.000000E+00
   0.523017E+06   0.276597E+04   0.000000E+00
   0.000000E+00   0.000000E+00   0.000000E+00
   0.000000E+00   0.582827E+06   0.000000E+00
   0.582827E+06   0.276170E+04   0.000000E+00
   0.000000E+00   0.000000E+00   0.000000E+00
