# vtk DataFile Version 3.0
Particle data
ASCII
DATASET POLYDATA
POINTS 4 float
   0.338962E+01   0.187124E+01   0.000000E+00
   0.343633E+01   0.187124E+01   0.000000E+00
   0.338962E+01   0.183223E+01   0.000000E+00
   0.343633E+01   0.183223E+01   0.000000E+00
POINT_DATA 4
VECTORS velocity float
   0.690251-309   0.690251-309   0.000000E+00
   0.000000E+00   0.000000E+00   0.000000E+00
   0.170000E+01   0.180000E+01   0.000000E+00
   0.190000E+01   0.200000E+01   0.000000E+00
SCALARS volume float 1
LOOKUP_TABLE default
   0.100000E-11
   0.100000E-11
   0.100000E-11
   0.100000E-11
TENSORS stress float
   0.000000E+00   0.140383E+05   0.000000E+00
   0.140383E+05   0.318447E+04   0.000000E+00
   0.000000E+00   0.000000E+00   0.000000E+00
   0.000000E+00   0.388977E+05   0.000000E+00
   0.388977E+05   0.317188E+04   0.000000E+00
   0.000000E+00   0.000000E+00   0.000000E+00
   0.000000E+00   0.529979E+06   0.000000E+00
   0.529979E+06   0.345382E+04   0.000000E+00
   0.000000E+00   0.000000E+00   0.000000E+00
   0.000000E+00   0.610799E+06   0.000000E+00
   0.610799E+06   0.344960E+04   0.000000E+00
   0.000000E+00   0.000000E+00   0.000000E+00
