# vtk DataFile Version 3.0
Particle data
ASCII
DATASET POLYDATA
POINTS 4 float
   0.330297E+01   0.187461E+01   0.000000E+00
   0.335023E+01   0.187461E+01   0.000000E+00
   0.330297E+01   0.183559E+01   0.000000E+00
   0.335023E+01   0.183559E+01   0.000000E+00
POINT_DATA 4
VECTORS velocity float
   0.690251-309   0.690251-309   0.000000E+00
   0.000000E+00   0.000000E+00   0.000000E+00
   0.170000E+01   0.180000E+01   0.000000E+00
   0.190000E+01   0.200000E+01   0.000000E+00
SCALARS volume float 1
LOOKUP_TABLE default
   0.100000E-11
   0.100000E-11
   0.100000E-11
   0.100000E-11
TENSORS stress float
   0.784434E-01   0.137695E+05   0.000000E+00
   0.137695E+05   0.311319E+04   0.000000E+00
   0.000000E+00   0.000000E+00   0.000000E+00
   0.000000E+00   0.366488E+05   0.000000E+00
   0.366488E+05   0.310057E+04   0.000000E+00
   0.000000E+00   0.000000E+00   0.000000E+00
   0.784434E-01   0.529710E+06   0.000000E+00
   0.529710E+06   0.338254E+04   0.000000E+00
   0.000000E+00   0.000000E+00   0.000000E+00
   0.000000E+00   0.608550E+06   0.000000E+00
   0.608550E+06   0.337829E+04   0.000000E+00
   0.000000E+00   0.000000E+00   0.000000E+00
