# vtk DataFile Version 3.0
Particle data
ASCII
DATASET POLYDATA
POINTS 4 float
   0.593658E+00   0.195867E+01   0.000000E+00
   0.648355E+00   0.195867E+01   0.000000E+00
   0.593658E+00   0.191955E+01   0.000000E+00
   0.648355E+00   0.191955E+01   0.000000E+00
POINT_DATA 4
VECTORS velocity float
   0.690251-309   0.690251-309   0.000000E+00
   0.000000E+00   0.000000E+00   0.000000E+00
   0.170000E+01   0.180000E+01   0.000000E+00
   0.190000E+01   0.200000E+01   0.000000E+00
SCALARS volume float 1
LOOKUP_TABLE default
   0.100000E-11
   0.100000E-11
   0.100000E-11
   0.100000E-11
TENSORS stress float
   0.000000E+00   0.000000E+00   0.000000E+00
   0.000000E+00   0.136052E+04   0.000000E+00
   0.000000E+00   0.000000E+00   0.000000E+00
   0.000000E+00   0.115822E+05   0.000000E+00
   0.115822E+05   0.136818E+04   0.000000E+00
   0.000000E+00   0.000000E+00   0.000000E+00
   0.000000E+00   0.105180E+05   0.000000E+00
   0.105180E+05   0.163233E+04   0.000000E+00
   0.000000E+00   0.000000E+00   0.000000E+00
   0.000000E+00   0.274235E+05   0.000000E+00
   0.274235E+05   0.164836E+04   0.000000E+00
   0.000000E+00   0.000000E+00   0.000000E+00
