# vtk DataFile Version 3.0
Particle data
ASCII
DATASET POLYDATA
POINTS 4 float
   0.648981E+00   0.195248E+01   0.000000E+00
   0.703839E+00   0.195248E+01   0.000000E+00
   0.648981E+00   0.191336E+01   0.000000E+00
   0.703839E+00   0.191336E+01   0.000000E+00
POINT_DATA 4
VECTORS velocity float
   0.690251-309   0.690251-309   0.000000E+00
   0.000000E+00   0.000000E+00   0.000000E+00
   0.170000E+01   0.180000E+01   0.000000E+00
   0.190000E+01   0.200000E+01   0.000000E+00
SCALARS volume float 1
LOOKUP_TABLE default
   0.100000E-11
   0.100000E-11
   0.100000E-11
   0.100000E-11
TENSORS stress float
   0.148141E+02   0.000000E+00   0.000000E+00
   0.000000E+00   0.182713E+04   0.000000E+00
   0.000000E+00   0.000000E+00   0.000000E+00
   0.148434E+02   0.126600E+05   0.000000E+00
   0.126600E+05   0.183476E+04   0.000000E+00
   0.000000E+00   0.000000E+00   0.000000E+00
   0.148141E+02   0.454296E+04   0.000000E+00
   0.454296E+04   0.209893E+04   0.000000E+00
   0.000000E+00   0.000000E+00   0.000000E+00
   0.148434E+02   0.285014E+05   0.000000E+00
   0.285014E+05   0.211493E+04   0.000000E+00
   0.000000E+00   0.000000E+00   0.000000E+00
