# vtk DataFile Version 3.0
Particle data
ASCII
DATASET POLYDATA
POINTS 4 float
   0.326373E+01   0.187647E+01   0.000000E+00
   0.331050E+01   0.187647E+01   0.000000E+00
   0.326373E+01   0.183743E+01   0.000000E+00
   0.331050E+01   0.183743E+01   0.000000E+00
POINT_DATA 4
VECTORS velocity float
   0.690251-309   0.690251-309   0.000000E+00
   0.000000E+00   0.000000E+00   0.000000E+00
   0.170000E+01   0.180000E+01   0.000000E+00
   0.190000E+01   0.200000E+01   0.000000E+00
SCALARS volume float 1
LOOKUP_TABLE default
   0.100000E-11
   0.100000E-11
   0.100000E-11
   0.100000E-11
TENSORS stress float
   0.000000E+00   0.147150E+05   0.000000E+00
   0.147150E+05   0.304755E+04   0.000000E+00
   0.000000E+00   0.000000E+00   0.000000E+00
   0.000000E+00   0.354960E+05   0.000000E+00
   0.354960E+05   0.303495E+04   0.000000E+00
   0.000000E+00   0.000000E+00   0.000000E+00
   0.000000E+00   0.530656E+06   0.000000E+00
   0.530656E+06   0.331690E+04   0.000000E+00
   0.000000E+00   0.000000E+00   0.000000E+00
   0.000000E+00   0.607397E+06   0.000000E+00
   0.607397E+06   0.331267E+04   0.000000E+00
   0.000000E+00   0.000000E+00   0.000000E+00
