# vtk DataFile Version 3.0
Particle data
ASCII
DATASET POLYDATA
POINTS 4 float
   0.338055E+01   0.187169E+01   0.000000E+00
   0.342724E+01   0.187169E+01   0.000000E+00
   0.338055E+01   0.183268E+01   0.000000E+00
   0.342724E+01   0.183268E+01   0.000000E+00
POINT_DATA 4
VECTORS velocity float
   0.690251-309   0.690251-309   0.000000E+00
   0.000000E+00   0.000000E+00   0.000000E+00
   0.170000E+01   0.180000E+01   0.000000E+00
   0.190000E+01   0.200000E+01   0.000000E+00
SCALARS volume float 1
LOOKUP_TABLE default
   0.100000E-11
   0.100000E-11
   0.100000E-11
   0.100000E-11
TENSORS stress float
   0.000000E+00   0.141700E+05   0.000000E+00
   0.141700E+05   0.317565E+04   0.000000E+00
   0.000000E+00   0.000000E+00   0.000000E+00
   0.000000E+00   0.387650E+05   0.000000E+00
   0.387650E+05   0.316307E+04   0.000000E+00
   0.000000E+00   0.000000E+00   0.000000E+00
   0.000000E+00   0.530111E+06   0.000000E+00
   0.530111E+06   0.344500E+04   0.000000E+00
   0.000000E+00   0.000000E+00   0.000000E+00
   0.000000E+00   0.610666E+06   0.000000E+00
   0.610666E+06   0.344080E+04   0.000000E+00
   0.000000E+00   0.000000E+00   0.000000E+00
