# vtk DataFile Version 3.0
Particle data
ASCII
DATASET POLYDATA
POINTS 4 float
   0.278818E+01   0.189596E+01   0.000000E+00
   0.283471E+01   0.189596E+01   0.000000E+00
   0.278818E+01   0.185639E+01   0.000000E+00
   0.283471E+01   0.185639E+01   0.000000E+00
POINT_DATA 4
VECTORS velocity float
   0.690251-309   0.690251-309   0.000000E+00
   0.000000E+00   0.000000E+00   0.000000E+00
   0.170000E+01   0.180000E+01   0.000000E+00
   0.190000E+01   0.200000E+01   0.000000E+00
SCALARS volume float 1
LOOKUP_TABLE default
   0.100000E-11
   0.100000E-11
   0.100000E-11
   0.100000E-11
TENSORS stress float
   0.000000E+00   0.583022E+04   0.000000E+00
   0.583022E+04   0.246596E+04   0.000000E+00
   0.000000E+00   0.000000E+00   0.000000E+00
   0.000000E+00   0.867566E+04   0.000000E+00
   0.867566E+04   0.245337E+04   0.000000E+00
   0.000000E+00   0.000000E+00   0.000000E+00
   0.000000E+00   0.521771E+06   0.000000E+00
   0.521771E+06   0.273531E+04   0.000000E+00
   0.000000E+00   0.000000E+00   0.000000E+00
   0.000000E+00   0.580577E+06   0.000000E+00
   0.580577E+06   0.273109E+04   0.000000E+00
   0.000000E+00   0.000000E+00   0.000000E+00
