# vtk DataFile Version 3.0
Particle data
ASCII
DATASET POLYDATA
POINTS 4 float
   0.699440E+00   0.194623E+01   0.000000E+00
   0.754747E+00   0.194623E+01   0.000000E+00
   0.699440E+00   0.190672E+01   0.000000E+00
   0.754747E+00   0.190672E+01   0.000000E+00
POINT_DATA 4
VECTORS velocity float
   0.690251-309   0.690251-309   0.000000E+00
   0.000000E+00   0.000000E+00   0.000000E+00
   0.170000E+01   0.180000E+01   0.000000E+00
   0.190000E+01   0.200000E+01   0.000000E+00
SCALARS volume float 1
LOOKUP_TABLE default
   0.100000E-11
   0.100000E-11
   0.100000E-11
   0.100000E-11
TENSORS stress float
   0.424673E+00   0.000000E+00   0.000000E+00
   0.000000E+00   0.198679E+04   0.000000E+00
   0.000000E+00   0.000000E+00   0.000000E+00
   0.136453E+00   0.106655E+05   0.000000E+00
   0.106655E+05   0.199440E+04   0.000000E+00
   0.000000E+00   0.000000E+00   0.000000E+00
   0.424673E+00   0.000000E+00   0.000000E+00
   0.000000E+00   0.225859E+04   0.000000E+00
   0.000000E+00   0.000000E+00   0.000000E+00
   0.136453E+00   0.265068E+05   0.000000E+00
   0.265068E+05   0.227458E+04   0.000000E+00
   0.000000E+00   0.000000E+00   0.000000E+00
