# vtk DataFile Version 3.0
Particle data
ASCII
DATASET POLYDATA
POINTS 4 float
   0.787378E+00   0.193896E+01   0.000000E+00
   0.842120E+00   0.193896E+01   0.000000E+00
   0.787378E+00   0.189901E+01   0.000000E+00
   0.842120E+00   0.189901E+01   0.000000E+00
POINT_DATA 4
VECTORS velocity float
   0.690251-309   0.690251-309   0.000000E+00
   0.000000E+00   0.000000E+00   0.000000E+00
   0.170000E+01   0.180000E+01   0.000000E+00
   0.190000E+01   0.200000E+01   0.000000E+00
SCALARS volume float 1
LOOKUP_TABLE default
   0.100000E-11
   0.100000E-11
   0.100000E-11
   0.100000E-11
TENSORS stress float
   0.000000E+00   0.000000E+00   0.000000E+00
   0.000000E+00   0.230496E+04   0.000000E+00
   0.000000E+00   0.000000E+00   0.000000E+00
   0.000000E+00   0.667104E+04   0.000000E+00
   0.667104E+04   0.230717E+04   0.000000E+00
   0.000000E+00   0.000000E+00   0.000000E+00
   0.000000E+00   0.305168E+06   0.000000E+00
   0.305168E+06   0.257283E+04   0.000000E+00
   0.000000E+00   0.000000E+00   0.000000E+00
   0.000000E+00   0.328871E+06   0.000000E+00
   0.328871E+06   0.258341E+04   0.000000E+00
   0.000000E+00   0.000000E+00   0.000000E+00
