# vtk DataFile Version 3.0
Particle data
ASCII
DATASET POLYDATA
POINTS 4 float
   0.115584E+01   0.192752E+01   0.000000E+00
   0.121000E+01   0.192752E+01   0.000000E+00
   0.115584E+01   0.188749E+01   0.000000E+00
   0.121000E+01   0.188749E+01   0.000000E+00
POINT_DATA 4
VECTORS velocity float
   0.690251-309   0.690251-309   0.000000E+00
   0.000000E+00   0.000000E+00   0.000000E+00
   0.170000E+01   0.180000E+01   0.000000E+00
   0.190000E+01   0.200000E+01   0.000000E+00
SCALARS volume float 1
LOOKUP_TABLE default
   0.100000E-11
   0.100000E-11
   0.100000E-11
   0.100000E-11
TENSORS stress float
   0.000000E+00   0.000000E+00   0.000000E+00
   0.000000E+00   0.240038E+04   0.000000E+00
   0.000000E+00   0.000000E+00   0.000000E+00
   0.000000E+00   0.554294E+03   0.000000E+00
   0.554294E+03   0.240155E+04   0.000000E+00
   0.000000E+00   0.000000E+00   0.000000E+00
   0.000000E+00   0.445770E+06   0.000000E+00
   0.445770E+06   0.263382E+04   0.000000E+00
   0.000000E+00   0.000000E+00   0.000000E+00
   0.000000E+00   0.478841E+06   0.000000E+00
   0.478841E+06   0.264337E+04   0.000000E+00
   0.000000E+00   0.000000E+00   0.000000E+00
