# vtk DataFile Version 3.0
Particle data
ASCII
DATASET POLYDATA
POINTS 4 float
   0.554548E+00   0.196593E+01   0.000000E+00
   0.608807E+00   0.196593E+01   0.000000E+00
   0.554548E+00   0.192697E+01   0.000000E+00
   0.608807E+00   0.192697E+01   0.000000E+00
POINT_DATA 4
VECTORS velocity float
   0.690251-309   0.690251-309   0.000000E+00
   0.000000E+00   0.000000E+00   0.000000E+00
   0.170000E+01   0.180000E+01   0.000000E+00
   0.190000E+01   0.200000E+01   0.000000E+00
SCALARS volume float 1
LOOKUP_TABLE default
   0.100000E-11
   0.100000E-11
   0.100000E-11
   0.100000E-11
TENSORS stress float
   0.140151E+02   0.602977E+03   0.000000E+00
   0.602977E+03   0.122393E+04   0.000000E+00
   0.000000E+00   0.000000E+00   0.000000E+00
   0.155504E+02   0.117047E+05   0.000000E+00
   0.117047E+05   0.123161E+04   0.000000E+00
   0.000000E+00   0.000000E+00   0.000000E+00
   0.140151E+02   0.122090E+05   0.000000E+00
   0.122090E+05   0.149574E+04   0.000000E+00
   0.000000E+00   0.000000E+00   0.000000E+00
   0.155504E+02   0.275461E+05   0.000000E+00
   0.275461E+05   0.151178E+04   0.000000E+00
   0.000000E+00   0.000000E+00   0.000000E+00
