# vtk DataFile Version 3.0
Particle data
ASCII
DATASET POLYDATA
POINTS 4 float
   0.281276E+01   0.189499E+01   0.000000E+00
   0.286000E+01   0.189499E+01   0.000000E+00
   0.281276E+01   0.185547E+01   0.000000E+00
   0.286000E+01   0.185547E+01   0.000000E+00
POINT_DATA 4
VECTORS velocity float
   0.690251-309   0.690251-309   0.000000E+00
   0.000000E+00   0.000000E+00   0.000000E+00
   0.170000E+01   0.180000E+01   0.000000E+00
   0.190000E+01   0.200000E+01   0.000000E+00
SCALARS volume float 1
LOOKUP_TABLE default
   0.100000E-11
   0.100000E-11
   0.100000E-11
   0.100000E-11
TENSORS stress float
   0.000000E+00   0.651453E+04   0.000000E+00
   0.651453E+04   0.249485E+04   0.000000E+00
   0.000000E+00   0.000000E+00   0.000000E+00
   0.000000E+00   0.103637E+05   0.000000E+00
   0.103637E+05   0.248221E+04   0.000000E+00
   0.000000E+00   0.000000E+00   0.000000E+00
   0.000000E+00   0.522455E+06   0.000000E+00
   0.522455E+06   0.276420E+04   0.000000E+00
   0.000000E+00   0.000000E+00   0.000000E+00
   0.000000E+00   0.582265E+06   0.000000E+00
   0.582265E+06   0.275993E+04   0.000000E+00
   0.000000E+00   0.000000E+00   0.000000E+00
