# vtk DataFile Version 3.0
Particle data
ASCII
DATASET POLYDATA
POINTS 4 float
   0.329093E+01   0.187506E+01   0.000000E+00
   0.333773E+01   0.187506E+01   0.000000E+00
   0.329093E+01   0.183603E+01   0.000000E+00
   0.333773E+01   0.183603E+01   0.000000E+00
POINT_DATA 4
VECTORS velocity float
   0.690251-309   0.690251-309   0.000000E+00
   0.000000E+00   0.000000E+00   0.000000E+00
   0.170000E+01   0.180000E+01   0.000000E+00
   0.190000E+01   0.200000E+01   0.000000E+00
SCALARS volume float 1
LOOKUP_TABLE default
   0.100000E-11
   0.100000E-11
   0.100000E-11
   0.100000E-11
TENSORS stress float
   0.000000E+00   0.148093E+05   0.000000E+00
   0.148093E+05   0.307487E+04   0.000000E+00
   0.000000E+00   0.000000E+00   0.000000E+00
   0.000000E+00   0.363952E+05   0.000000E+00
   0.363952E+05   0.306228E+04   0.000000E+00
   0.000000E+00   0.000000E+00   0.000000E+00
   0.000000E+00   0.530750E+06   0.000000E+00
   0.530750E+06   0.334422E+04   0.000000E+00
   0.000000E+00   0.000000E+00   0.000000E+00
   0.000000E+00   0.608297E+06   0.000000E+00
   0.608297E+06   0.334000E+04   0.000000E+00
   0.000000E+00   0.000000E+00   0.000000E+00
