# vtk DataFile Version 3.0
Particle data
ASCII
DATASET POLYDATA
POINTS 4 float
   0.310839E+01   0.188258E+01   0.000000E+00
   0.315565E+01   0.188258E+01   0.000000E+00
   0.310839E+01   0.184347E+01   0.000000E+00
   0.315565E+01   0.184347E+01   0.000000E+00
POINT_DATA 4
VECTORS velocity float
   0.690251-309   0.690251-309   0.000000E+00
   0.000000E+00   0.000000E+00   0.000000E+00
   0.170000E+01   0.180000E+01   0.000000E+00
   0.190000E+01   0.200000E+01   0.000000E+00
SCALARS volume float 1
LOOKUP_TABLE default
   0.100000E-11
   0.100000E-11
   0.100000E-11
   0.100000E-11
TENSORS stress float
   0.000000E+00   0.127520E+05   0.000000E+00
   0.127520E+05   0.290287E+04   0.000000E+00
   0.000000E+00   0.000000E+00   0.000000E+00
   0.000000E+00   0.294967E+05   0.000000E+00
   0.294967E+05   0.289025E+04   0.000000E+00
   0.000000E+00   0.000000E+00   0.000000E+00
   0.000000E+00   0.528693E+06   0.000000E+00
   0.528693E+06   0.317222E+04   0.000000E+00
   0.000000E+00   0.000000E+00   0.000000E+00
   0.000000E+00   0.601398E+06   0.000000E+00
   0.601398E+06   0.316797E+04   0.000000E+00
   0.000000E+00   0.000000E+00   0.000000E+00
