# vtk DataFile Version 3.0
Particle data
ASCII
DATASET POLYDATA
POINTS 4 float
   0.303907E+01   0.188567E+01   0.000000E+00
   0.308636E+01   0.188567E+01   0.000000E+00
   0.303907E+01   0.184646E+01   0.000000E+00
   0.308636E+01   0.184646E+01   0.000000E+00
POINT_DATA 4
VECTORS velocity float
   0.690251-309   0.690251-309   0.000000E+00
   0.000000E+00   0.000000E+00   0.000000E+00
   0.170000E+01   0.180000E+01   0.000000E+00
   0.190000E+01   0.200000E+01   0.000000E+00
SCALARS volume float 1
LOOKUP_TABLE default
   0.100000E-11
   0.100000E-11
   0.100000E-11
   0.100000E-11
TENSORS stress float
   0.174600E+01   0.115493E+05   0.000000E+00
   0.115493E+05   0.279745E+04   0.000000E+00
   0.000000E+00   0.000000E+00   0.000000E+00
   0.151648E+01   0.250194E+05   0.000000E+00
   0.250194E+05   0.278482E+04   0.000000E+00
   0.000000E+00   0.000000E+00   0.000000E+00
   0.174600E+01   0.527490E+06   0.000000E+00
   0.527490E+06   0.306680E+04   0.000000E+00
   0.000000E+00   0.000000E+00   0.000000E+00
   0.151648E+01   0.596921E+06   0.000000E+00
   0.596921E+06   0.306255E+04   0.000000E+00
   0.000000E+00   0.000000E+00   0.000000E+00
