# vtk DataFile Version 3.0
Particle data
ASCII
DATASET POLYDATA
POINTS 4 float
   0.562854E+00   0.196436E+01   0.000000E+00
   0.617005E+00   0.196436E+01   0.000000E+00
   0.562854E+00   0.192535E+01   0.000000E+00
   0.617005E+00   0.192535E+01   0.000000E+00
POINT_DATA 4
VECTORS velocity float
   0.690251-309   0.690251-309   0.000000E+00
   0.000000E+00   0.000000E+00   0.000000E+00
   0.170000E+01   0.180000E+01   0.000000E+00
   0.190000E+01   0.200000E+01   0.000000E+00
SCALARS volume float 1
LOOKUP_TABLE default
   0.100000E-11
   0.100000E-11
   0.100000E-11
   0.100000E-11
TENSORS stress float
   0.825544E+01   0.427107E+03   0.000000E+00
   0.427107E+03   0.125784E+04   0.000000E+00
   0.000000E+00   0.000000E+00   0.000000E+00
   0.120113E+02   0.119113E+05   0.000000E+00
   0.119113E+05   0.126559E+04   0.000000E+00
   0.000000E+00   0.000000E+00   0.000000E+00
   0.825544E+01   0.120332E+05   0.000000E+00
   0.120332E+05   0.152965E+04   0.000000E+00
   0.000000E+00   0.000000E+00   0.000000E+00
   0.120113E+02   0.277526E+05   0.000000E+00
   0.277526E+05   0.154576E+04   0.000000E+00
   0.000000E+00   0.000000E+00   0.000000E+00
