# vtk DataFile Version 3.0
Particle data
ASCII
DATASET POLYDATA
POINTS 4 float
   0.115357E+01   0.192758E+01   0.000000E+00
   0.120695E+01   0.192758E+01   0.000000E+00
   0.115357E+01   0.188755E+01   0.000000E+00
   0.120695E+01   0.188755E+01   0.000000E+00
POINT_DATA 4
VECTORS velocity float
   0.690251-309   0.690251-309   0.000000E+00
   0.000000E+00   0.000000E+00   0.000000E+00
   0.170000E+01   0.180000E+01   0.000000E+00
   0.190000E+01   0.200000E+01   0.000000E+00
SCALARS volume float 1
LOOKUP_TABLE default
   0.100000E-11
   0.100000E-11
   0.100000E-11
   0.100000E-11
TENSORS stress float
   0.000000E+00   0.000000E+00   0.000000E+00
   0.000000E+00   0.240029E+04   0.000000E+00
   0.000000E+00   0.000000E+00   0.000000E+00
   0.000000E+00   0.615109E+03   0.000000E+00
   0.615109E+03   0.240144E+04   0.000000E+00
   0.000000E+00   0.000000E+00   0.000000E+00
   0.000000E+00   0.445489E+06   0.000000E+00
   0.445489E+06   0.263375E+04   0.000000E+00
   0.000000E+00   0.000000E+00   0.000000E+00
   0.000000E+00   0.478499E+06   0.000000E+00
   0.478499E+06   0.264328E+04   0.000000E+00
   0.000000E+00   0.000000E+00   0.000000E+00
