# vtk DataFile Version 3.0
Particle data
ASCII
DATASET POLYDATA
POINTS 4 float
   0.287113E+01   0.189277E+01   0.000000E+00
   0.291723E+01   0.189277E+01   0.000000E+00
   0.287113E+01   0.185333E+01   0.000000E+00
   0.291723E+01   0.185333E+01   0.000000E+00
POINT_DATA 4
VECTORS velocity float
   0.690251-309   0.690251-309   0.000000E+00
   0.000000E+00   0.000000E+00   0.000000E+00
   0.170000E+01   0.180000E+01   0.000000E+00
   0.190000E+01   0.200000E+01   0.000000E+00
SCALARS volume float 1
LOOKUP_TABLE default
   0.100000E-11
   0.100000E-11
   0.100000E-11
   0.100000E-11
TENSORS stress float
   0.000000E+00   0.950887E+04   0.000000E+00
   0.950887E+04   0.253431E+04   0.000000E+00
   0.000000E+00   0.000000E+00   0.000000E+00
   0.000000E+00   0.144991E+05   0.000000E+00
   0.144991E+05   0.252172E+04   0.000000E+00
   0.000000E+00   0.000000E+00   0.000000E+00
   0.000000E+00   0.525450E+06   0.000000E+00
   0.525450E+06   0.280366E+04   0.000000E+00
   0.000000E+00   0.000000E+00   0.000000E+00
   0.000000E+00   0.586400E+06   0.000000E+00
   0.586400E+06   0.279944E+04   0.000000E+00
   0.000000E+00   0.000000E+00   0.000000E+00
