# vtk DataFile Version 3.0
Particle data
ASCII
DATASET POLYDATA
POINTS 4 float
   0.317062E+01   0.188020E+01   0.000000E+00
   0.321720E+01   0.188020E+01   0.000000E+00
   0.317062E+01   0.184112E+01   0.000000E+00
   0.321720E+01   0.184112E+01   0.000000E+00
POINT_DATA 4
VECTORS velocity float
   0.690251-309   0.690251-309   0.000000E+00
   0.000000E+00   0.000000E+00   0.000000E+00
   0.170000E+01   0.180000E+01   0.000000E+00
   0.190000E+01   0.200000E+01   0.000000E+00
SCALARS volume float 1
LOOKUP_TABLE default
   0.100000E-11
   0.100000E-11
   0.100000E-11
   0.100000E-11
TENSORS stress float
   0.000000E+00   0.142237E+05   0.000000E+00
   0.142237E+05   0.295207E+04   0.000000E+00
   0.000000E+00   0.000000E+00   0.000000E+00
   0.000000E+00   0.322686E+05   0.000000E+00
   0.322686E+05   0.293949E+04   0.000000E+00
   0.000000E+00   0.000000E+00   0.000000E+00
   0.000000E+00   0.530165E+06   0.000000E+00
   0.530165E+06   0.322143E+04   0.000000E+00
   0.000000E+00   0.000000E+00   0.000000E+00
   0.000000E+00   0.604170E+06   0.000000E+00
   0.604170E+06   0.321722E+04   0.000000E+00
   0.000000E+00   0.000000E+00   0.000000E+00
