# vtk DataFile Version 3.0
Particle data
ASCII
DATASET POLYDATA
POINTS 4 float
   0.305926E+01   0.188494E+01   0.000000E+00
   0.310638E+01   0.188494E+01   0.000000E+00
   0.305926E+01   0.184573E+01   0.000000E+00
   0.310638E+01   0.184573E+01   0.000000E+00
POINT_DATA 4
VECTORS velocity float
   0.690251-309   0.690251-309   0.000000E+00
   0.000000E+00   0.000000E+00   0.000000E+00
   0.170000E+01   0.180000E+01   0.000000E+00
   0.190000E+01   0.200000E+01   0.000000E+00
SCALARS volume float 1
LOOKUP_TABLE default
   0.100000E-11
   0.100000E-11
   0.100000E-11
   0.100000E-11
TENSORS stress float
   0.000000E+00   0.121774E+05   0.000000E+00
   0.121774E+05   0.283584E+04   0.000000E+00
   0.000000E+00   0.000000E+00   0.000000E+00
   0.322112E+00   0.268667E+05   0.000000E+00
   0.268667E+05   0.282322E+04   0.000000E+00
   0.000000E+00   0.000000E+00   0.000000E+00
   0.000000E+00   0.528118E+06   0.000000E+00
   0.528118E+06   0.310519E+04   0.000000E+00
   0.000000E+00   0.000000E+00   0.000000E+00
   0.322112E+00   0.598768E+06   0.000000E+00
   0.598768E+06   0.310095E+04   0.000000E+00
   0.000000E+00   0.000000E+00   0.000000E+00
