# vtk DataFile Version 3.0
Particle data
ASCII
DATASET POLYDATA
POINTS 4 float
   0.724216E+00   0.194424E+01   0.000000E+00
   0.779531E+00   0.194424E+01   0.000000E+00
   0.724216E+00   0.190473E+01   0.000000E+00
   0.779531E+00   0.190473E+01   0.000000E+00
POINT_DATA 4
VECTORS velocity float
   0.690251-309   0.690251-309   0.000000E+00
   0.000000E+00   0.000000E+00   0.000000E+00
   0.170000E+01   0.180000E+01   0.000000E+00
   0.190000E+01   0.200000E+01   0.000000E+00
SCALARS volume float 1
LOOKUP_TABLE default
   0.100000E-11
   0.100000E-11
   0.100000E-11
   0.100000E-11
TENSORS stress float
   0.747633E+01   0.000000E+00   0.000000E+00
   0.000000E+00   0.222907E+04   0.000000E+00
   0.000000E+00   0.000000E+00   0.000000E+00
   0.701234E+01   0.950929E+04   0.000000E+00
   0.950929E+04   0.223668E+04   0.000000E+00
   0.000000E+00   0.000000E+00   0.000000E+00
   0.747633E+01   0.000000E+00   0.000000E+00
   0.000000E+00   0.250088E+04   0.000000E+00
   0.000000E+00   0.000000E+00   0.000000E+00
   0.701234E+01   0.253506E+05   0.000000E+00
   0.253506E+05   0.251686E+04   0.000000E+00
   0.000000E+00   0.000000E+00   0.000000E+00
