# vtk DataFile Version 3.0
Particle data
ASCII
DATASET POLYDATA
POINTS 4 float
   0.315260E+01   0.188098E+01   0.000000E+00
   0.319986E+01   0.188098E+01   0.000000E+00
   0.315260E+01   0.184187E+01   0.000000E+00
   0.319986E+01   0.184187E+01   0.000000E+00
POINT_DATA 4
VECTORS velocity float
   0.690251-309   0.690251-309   0.000000E+00
   0.000000E+00   0.000000E+00   0.000000E+00
   0.170000E+01   0.180000E+01   0.000000E+00
   0.190000E+01   0.200000E+01   0.000000E+00
SCALARS volume float 1
LOOKUP_TABLE default
   0.100000E-11
   0.100000E-11
   0.100000E-11
   0.100000E-11
TENSORS stress float
   0.000000E+00   0.137765E+05   0.000000E+00
   0.137765E+05   0.291214E+04   0.000000E+00
   0.000000E+00   0.000000E+00   0.000000E+00
   0.000000E+00   0.305211E+05   0.000000E+00
   0.305211E+05   0.289952E+04   0.000000E+00
   0.000000E+00   0.000000E+00   0.000000E+00
   0.000000E+00   0.529717E+06   0.000000E+00
   0.529717E+06   0.318150E+04   0.000000E+00
   0.000000E+00   0.000000E+00   0.000000E+00
   0.000000E+00   0.602422E+06   0.000000E+00
   0.602422E+06   0.317724E+04   0.000000E+00
   0.000000E+00   0.000000E+00   0.000000E+00
