# vtk DataFile Version 3.0
Particle data
ASCII
DATASET POLYDATA
POINTS 4 float
   0.818210E+00   0.193697E+01   0.000000E+00
   0.873762E+00   0.193697E+01   0.000000E+00
   0.818210E+00   0.189698E+01   0.000000E+00
   0.873762E+00   0.189698E+01   0.000000E+00
POINT_DATA 4
VECTORS velocity float
   0.690251-309   0.690251-309   0.000000E+00
   0.000000E+00   0.000000E+00   0.000000E+00
   0.170000E+01   0.180000E+01   0.000000E+00
   0.190000E+01   0.200000E+01   0.000000E+00
SCALARS volume float 1
LOOKUP_TABLE default
   0.100000E-11
   0.100000E-11
   0.100000E-11
   0.100000E-11
TENSORS stress float
   0.000000E+00   0.000000E+00   0.000000E+00
   0.000000E+00   0.234821E+04   0.000000E+00
   0.000000E+00   0.000000E+00   0.000000E+00
   0.000000E+00   0.451132E+04   0.000000E+00
   0.451132E+04   0.234870E+04   0.000000E+00
   0.000000E+00   0.000000E+00   0.000000E+00
   0.000000E+00   0.366228E+06   0.000000E+00
   0.366228E+06   0.259887E+04   0.000000E+00
   0.000000E+00   0.000000E+00   0.000000E+00
   0.000000E+00   0.392173E+06   0.000000E+00
   0.392173E+06   0.260773E+04   0.000000E+00
   0.000000E+00   0.000000E+00   0.000000E+00
