# vtk DataFile Version 3.0
Particle data
ASCII
DATASET POLYDATA
POINTS 4 float
   0.314182E+01   0.188137E+01   0.000000E+00
   0.318908E+01   0.188137E+01   0.000000E+00
   0.314182E+01   0.184226E+01   0.000000E+00
   0.318908E+01   0.184226E+01   0.000000E+00
POINT_DATA 4
VECTORS velocity float
   0.690251-309   0.690251-309   0.000000E+00
   0.000000E+00   0.000000E+00   0.000000E+00
   0.170000E+01   0.180000E+01   0.000000E+00
   0.190000E+01   0.200000E+01   0.000000E+00
SCALARS volume float 1
LOOKUP_TABLE default
   0.100000E-11
   0.100000E-11
   0.100000E-11
   0.100000E-11
TENSORS stress float
   0.973501E-01   0.135697E+05   0.000000E+00
   0.135697E+05   0.290964E+04   0.000000E+00
   0.000000E+00   0.000000E+00   0.000000E+00
   0.973501E-01   0.303143E+05   0.000000E+00
   0.303143E+05   0.289701E+04   0.000000E+00
   0.000000E+00   0.000000E+00   0.000000E+00
   0.973501E-01   0.529511E+06   0.000000E+00
   0.529511E+06   0.317899E+04   0.000000E+00
   0.000000E+00   0.000000E+00   0.000000E+00
   0.973501E-01   0.602216E+06   0.000000E+00
   0.602216E+06   0.317474E+04   0.000000E+00
   0.000000E+00   0.000000E+00   0.000000E+00
