# vtk DataFile Version 3.0
Particle data
ASCII
DATASET POLYDATA
POINTS 4 float
   0.322937E+01   0.187770E+01   0.000000E+00
   0.327660E+01   0.187770E+01   0.000000E+00
   0.322937E+01   0.183865E+01   0.000000E+00
   0.327660E+01   0.183865E+01   0.000000E+00
POINT_DATA 4
VECTORS velocity float
   0.690251-309   0.690251-309   0.000000E+00
   0.000000E+00   0.000000E+00   0.000000E+00
   0.170000E+01   0.180000E+01   0.000000E+00
   0.190000E+01   0.200000E+01   0.000000E+00
SCALARS volume float 1
LOOKUP_TABLE default
   0.100000E-11
   0.100000E-11
   0.100000E-11
   0.100000E-11
TENSORS stress float
   0.210421E+00   0.142586E+05   0.000000E+00
   0.142586E+05   0.301098E+04   0.000000E+00
   0.000000E+00   0.000000E+00   0.000000E+00
   0.210421E+00   0.339854E+05   0.000000E+00
   0.339854E+05   0.299836E+04   0.000000E+00
   0.000000E+00   0.000000E+00   0.000000E+00
   0.210421E+00   0.530200E+06   0.000000E+00
   0.530200E+06   0.328033E+04   0.000000E+00
   0.000000E+00   0.000000E+00   0.000000E+00
   0.210421E+00   0.605887E+06   0.000000E+00
   0.605887E+06   0.327608E+04   0.000000E+00
   0.000000E+00   0.000000E+00   0.000000E+00
