# vtk DataFile Version 3.0
Particle data
ASCII
DATASET POLYDATA
POINTS 4 float
   0.326867E+01   0.187622E+01   0.000000E+00
   0.331537E+01   0.187622E+01   0.000000E+00
   0.326867E+01   0.183718E+01   0.000000E+00
   0.331537E+01   0.183718E+01   0.000000E+00
POINT_DATA 4
VECTORS velocity float
   0.690251-309   0.690251-309   0.000000E+00
   0.000000E+00   0.000000E+00   0.000000E+00
   0.170000E+01   0.180000E+01   0.000000E+00
   0.190000E+01   0.200000E+01   0.000000E+00
SCALARS volume float 1
LOOKUP_TABLE default
   0.100000E-11
   0.100000E-11
   0.100000E-11
   0.100000E-11
TENSORS stress float
   0.000000E+00   0.147751E+05   0.000000E+00
   0.147751E+05   0.305315E+04   0.000000E+00
   0.000000E+00   0.000000E+00   0.000000E+00
   0.000000E+00   0.357252E+05   0.000000E+00
   0.357252E+05   0.304057E+04   0.000000E+00
   0.000000E+00   0.000000E+00   0.000000E+00
   0.000000E+00   0.530716E+06   0.000000E+00
   0.530716E+06   0.332250E+04   0.000000E+00
   0.000000E+00   0.000000E+00   0.000000E+00
   0.000000E+00   0.607627E+06   0.000000E+00
   0.607627E+06   0.331829E+04   0.000000E+00
   0.000000E+00   0.000000E+00   0.000000E+00
