# vtk DataFile Version 3.0
Particle data
ASCII
DATASET POLYDATA
POINTS 4 float
   0.306758E+01   0.188454E+01   0.000000E+00
   0.311413E+01   0.188454E+01   0.000000E+00
   0.306758E+01   0.184537E+01   0.000000E+00
   0.311413E+01   0.184537E+01   0.000000E+00
POINT_DATA 4
VECTORS velocity float
   0.690251-309   0.690251-309   0.000000E+00
   0.000000E+00   0.000000E+00   0.000000E+00
   0.170000E+01   0.180000E+01   0.000000E+00
   0.190000E+01   0.200000E+01   0.000000E+00
SCALARS volume float 1
LOOKUP_TABLE default
   0.100000E-11
   0.100000E-11
   0.100000E-11
   0.100000E-11
TENSORS stress float
   0.000000E+00   0.124875E+05   0.000000E+00
   0.124875E+05   0.284712E+04   0.000000E+00
   0.000000E+00   0.000000E+00   0.000000E+00
   0.000000E+00   0.275266E+05   0.000000E+00
   0.275266E+05   0.283454E+04   0.000000E+00
   0.000000E+00   0.000000E+00   0.000000E+00
   0.000000E+00   0.528428E+06   0.000000E+00
   0.528428E+06   0.311648E+04   0.000000E+00
   0.000000E+00   0.000000E+00   0.000000E+00
   0.000000E+00   0.599428E+06   0.000000E+00
   0.599428E+06   0.311226E+04   0.000000E+00
   0.000000E+00   0.000000E+00   0.000000E+00
