# vtk DataFile Version 3.0
Particle data
ASCII
DATASET POLYDATA
POINTS 4 float
   0.651101E+00   0.195227E+01   0.000000E+00
   0.705865E+00   0.195227E+01   0.000000E+00
   0.651101E+00   0.191315E+01   0.000000E+00
   0.705865E+00   0.191315E+01   0.000000E+00
POINT_DATA 4
VECTORS velocity float
   0.690251-309   0.690251-309   0.000000E+00
   0.000000E+00   0.000000E+00   0.000000E+00
   0.170000E+01   0.180000E+01   0.000000E+00
   0.190000E+01   0.200000E+01   0.000000E+00
SCALARS volume float 1
LOOKUP_TABLE default
   0.100000E-11
   0.100000E-11
   0.100000E-11
   0.100000E-11
TENSORS stress float
   0.142340E+02   0.000000E+00   0.000000E+00
   0.000000E+00   0.184009E+04   0.000000E+00
   0.000000E+00   0.000000E+00   0.000000E+00
   0.147316E+02   0.127583E+05   0.000000E+00
   0.127583E+05   0.184773E+04   0.000000E+00
   0.000000E+00   0.000000E+00   0.000000E+00
   0.142340E+02   0.442413E+04   0.000000E+00
   0.442413E+04   0.211189E+04   0.000000E+00
   0.000000E+00   0.000000E+00   0.000000E+00
   0.147316E+02   0.285996E+05   0.000000E+00
   0.285996E+05   0.212791E+04   0.000000E+00
   0.000000E+00   0.000000E+00   0.000000E+00
