# vtk DataFile Version 3.0
Particle data
ASCII
DATASET POLYDATA
POINTS 4 float
   0.700472E+00   0.194614E+01   0.000000E+00
   0.755785E+00   0.194614E+01   0.000000E+00
   0.700472E+00   0.190663E+01   0.000000E+00
   0.755785E+00   0.190663E+01   0.000000E+00
POINT_DATA 4
VECTORS velocity float
   0.690251-309   0.690251-309   0.000000E+00
   0.000000E+00   0.000000E+00   0.000000E+00
   0.170000E+01   0.180000E+01   0.000000E+00
   0.190000E+01   0.200000E+01   0.000000E+00
SCALARS volume float 1
LOOKUP_TABLE default
   0.100000E-11
   0.100000E-11
   0.100000E-11
   0.100000E-11
TENSORS stress float
   0.749694E+01   0.000000E+00   0.000000E+00
   0.000000E+00   0.222013E+04   0.000000E+00
   0.000000E+00   0.000000E+00   0.000000E+00
   0.703294E+01   0.105991E+05   0.000000E+00
   0.105991E+05   0.222774E+04   0.000000E+00
   0.000000E+00   0.000000E+00   0.000000E+00
   0.749694E+01   0.000000E+00   0.000000E+00
   0.000000E+00   0.249193E+04   0.000000E+00
   0.000000E+00   0.000000E+00   0.000000E+00
   0.703294E+01   0.264404E+05   0.000000E+00
   0.264404E+05   0.250791E+04   0.000000E+00
   0.000000E+00   0.000000E+00   0.000000E+00
