# vtk DataFile Version 3.0
Particle data
ASCII
DATASET POLYDATA
POINTS 4 float
   0.287481E+01   0.189258E+01   0.000000E+00
   0.292060E+01   0.189258E+01   0.000000E+00
   0.287481E+01   0.185316E+01   0.000000E+00
   0.292060E+01   0.185316E+01   0.000000E+00
POINT_DATA 4
VECTORS velocity float
   0.690251-309   0.690251-309   0.000000E+00
   0.000000E+00   0.000000E+00   0.000000E+00
   0.170000E+01   0.180000E+01   0.000000E+00
   0.190000E+01   0.200000E+01   0.000000E+00
SCALARS volume float 1
LOOKUP_TABLE default
   0.100000E-11
   0.100000E-11
   0.100000E-11
   0.100000E-11
TENSORS stress float
   0.000000E+00   0.972124E+04   0.000000E+00
   0.972124E+04   0.253723E+04   0.000000E+00
   0.000000E+00   0.000000E+00   0.000000E+00
   0.000000E+00   0.148013E+05   0.000000E+00
   0.148013E+05   0.252465E+04   0.000000E+00
   0.000000E+00   0.000000E+00   0.000000E+00
   0.000000E+00   0.525662E+06   0.000000E+00
   0.525662E+06   0.280658E+04   0.000000E+00
   0.000000E+00   0.000000E+00   0.000000E+00
   0.000000E+00   0.586703E+06   0.000000E+00
   0.586703E+06   0.280238E+04   0.000000E+00
   0.000000E+00   0.000000E+00   0.000000E+00
