# vtk DataFile Version 3.0
Particle data
ASCII
DATASET POLYDATA
POINTS 4 float
   0.806931E+00   0.193762E+01   0.000000E+00
   0.862480E+00   0.193762E+01   0.000000E+00
   0.806931E+00   0.189761E+01   0.000000E+00
   0.862480E+00   0.189761E+01   0.000000E+00
POINT_DATA 4
VECTORS velocity float
   0.690251-309   0.690251-309   0.000000E+00
   0.000000E+00   0.000000E+00   0.000000E+00
   0.170000E+01   0.180000E+01   0.000000E+00
   0.190000E+01   0.200000E+01   0.000000E+00
SCALARS volume float 1
LOOKUP_TABLE default
   0.100000E-11
   0.100000E-11
   0.100000E-11
   0.100000E-11
TENSORS stress float
   0.000000E+00   0.000000E+00   0.000000E+00
   0.000000E+00   0.234666E+04   0.000000E+00
   0.000000E+00   0.000000E+00   0.000000E+00
   0.000000E+00   0.517014E+04   0.000000E+00
   0.517014E+04   0.234715E+04   0.000000E+00
   0.000000E+00   0.000000E+00   0.000000E+00
   0.000000E+00   0.354015E+06   0.000000E+00
   0.354015E+06   0.259795E+04   0.000000E+00
   0.000000E+00   0.000000E+00   0.000000E+00
   0.000000E+00   0.379960E+06   0.000000E+00
   0.379960E+06   0.260681E+04   0.000000E+00
   0.000000E+00   0.000000E+00   0.000000E+00
