# vtk DataFile Version 3.0
Particle data
ASCII
DATASET POLYDATA
POINTS 4 float
   0.306520E+01   0.188467E+01   0.000000E+00
   0.311194E+01   0.188467E+01   0.000000E+00
   0.306520E+01   0.184548E+01   0.000000E+00
   0.311194E+01   0.184548E+01   0.000000E+00
POINT_DATA 4
VECTORS velocity float
   0.690251-309   0.690251-309   0.000000E+00
   0.000000E+00   0.000000E+00   0.000000E+00
   0.170000E+01   0.180000E+01   0.000000E+00
   0.190000E+01   0.200000E+01   0.000000E+00
SCALARS volume float 1
LOOKUP_TABLE default
   0.100000E-11
   0.100000E-11
   0.100000E-11
   0.100000E-11
TENSORS stress float
   0.000000E+00   0.124017E+05   0.000000E+00
   0.124017E+05   0.284450E+04   0.000000E+00
   0.000000E+00   0.000000E+00   0.000000E+00
   0.000000E+00   0.273622E+05   0.000000E+00
   0.273622E+05   0.283191E+04   0.000000E+00
   0.000000E+00   0.000000E+00   0.000000E+00
   0.000000E+00   0.528343E+06   0.000000E+00
   0.528343E+06   0.311385E+04   0.000000E+00
   0.000000E+00   0.000000E+00   0.000000E+00
   0.000000E+00   0.599264E+06   0.000000E+00
   0.599264E+06   0.310963E+04   0.000000E+00
   0.000000E+00   0.000000E+00   0.000000E+00
