# vtk DataFile Version 3.0
Particle data
ASCII
DATASET POLYDATA
POINTS 4 float
   0.565776E+00   0.196378E+01   0.000000E+00
   0.619939E+00   0.196378E+01   0.000000E+00
   0.565776E+00   0.192477E+01   0.000000E+00
   0.619939E+00   0.192477E+01   0.000000E+00
POINT_DATA 4
VECTORS velocity float
   0.690251-309   0.690251-309   0.000000E+00
   0.000000E+00   0.000000E+00   0.000000E+00
   0.170000E+01   0.180000E+01   0.000000E+00
   0.190000E+01   0.200000E+01   0.000000E+00
SCALARS volume float 1
LOOKUP_TABLE default
   0.100000E-11
   0.100000E-11
   0.100000E-11
   0.100000E-11
TENSORS stress float
   0.595508E+01   0.350318E+03   0.000000E+00
   0.350318E+03   0.126712E+04   0.000000E+00
   0.000000E+00   0.000000E+00   0.000000E+00
   0.102663E+02   0.119349E+05   0.000000E+00
   0.119349E+05   0.127488E+04   0.000000E+00
   0.000000E+00   0.000000E+00   0.000000E+00
   0.595508E+01   0.119564E+05   0.000000E+00
   0.119564E+05   0.153892E+04   0.000000E+00
   0.000000E+00   0.000000E+00   0.000000E+00
   0.102663E+02   0.277762E+05   0.000000E+00
   0.277762E+05   0.155505E+04   0.000000E+00
   0.000000E+00   0.000000E+00   0.000000E+00
