# vtk DataFile Version 3.0
Particle data
ASCII
DATASET POLYDATA
POINTS 4 float
   0.573694E+00   0.196222E+01   0.000000E+00
   0.627893E+00   0.196222E+01   0.000000E+00
   0.573694E+00   0.192321E+01   0.000000E+00
   0.627893E+00   0.192321E+01   0.000000E+00
POINT_DATA 4
VECTORS velocity float
   0.690251-309   0.690251-309   0.000000E+00
   0.000000E+00   0.000000E+00   0.000000E+00
   0.170000E+01   0.180000E+01   0.000000E+00
   0.190000E+01   0.200000E+01   0.000000E+00
SCALARS volume float 1
LOOKUP_TABLE default
   0.100000E-11
   0.100000E-11
   0.100000E-11
   0.100000E-11
TENSORS stress float
   0.000000E+00   0.974092E+02   0.000000E+00
   0.974092E+02   0.128984E+04   0.000000E+00
   0.000000E+00   0.000000E+00   0.000000E+00
   0.468588E+01   0.119254E+05   0.000000E+00
   0.119254E+05   0.129762E+04   0.000000E+00
   0.000000E+00   0.000000E+00   0.000000E+00
   0.000000E+00   0.117035E+05   0.000000E+00
   0.117035E+05   0.156165E+04   0.000000E+00
   0.000000E+00   0.000000E+00   0.000000E+00
   0.468588E+01   0.277668E+05   0.000000E+00
   0.277668E+05   0.157780E+04   0.000000E+00
   0.000000E+00   0.000000E+00   0.000000E+00
