# vtk DataFile Version 3.0
Particle data
ASCII
DATASET POLYDATA
POINTS 4 float
   0.537526E+00   0.196831E+01   0.000000E+00
   0.592156E+00   0.196831E+01   0.000000E+00
   0.537526E+00   0.192935E+01   0.000000E+00
   0.592156E+00   0.192935E+01   0.000000E+00
POINT_DATA 4
VECTORS velocity float
   0.690251-309   0.690251-309   0.000000E+00
   0.000000E+00   0.000000E+00   0.000000E+00
   0.170000E+01   0.180000E+01   0.000000E+00
   0.190000E+01   0.200000E+01   0.000000E+00
SCALARS volume float 1
LOOKUP_TABLE default
   0.100000E-11
   0.100000E-11
   0.100000E-11
   0.100000E-11
TENSORS stress float
   0.122538E+02   0.800401E+03   0.000000E+00
   0.800401E+03   0.981360E+03   0.000000E+00
   0.000000E+00   0.000000E+00   0.000000E+00
   0.114437E+02   0.886474E+04   0.000000E+00
   0.886474E+04   0.988961E+03   0.000000E+00
   0.000000E+00   0.000000E+00   0.000000E+00
   0.122538E+02   0.124065E+05   0.000000E+00
   0.124065E+05   0.125316E+04   0.000000E+00
   0.000000E+00   0.000000E+00   0.000000E+00
   0.114437E+02   0.247061E+05   0.000000E+00
   0.247061E+05   0.126914E+04   0.000000E+00
   0.000000E+00   0.000000E+00   0.000000E+00
