# vtk DataFile Version 3.0
Particle data
ASCII
DATASET POLYDATA
POINTS 4 float
   0.603606E+00   0.195746E+01   0.000000E+00
   0.658546E+00   0.195746E+01   0.000000E+00
   0.603606E+00   0.191834E+01   0.000000E+00
   0.658546E+00   0.191834E+01   0.000000E+00
POINT_DATA 4
VECTORS velocity float
   0.690251-309   0.690251-309   0.000000E+00
   0.000000E+00   0.000000E+00   0.000000E+00
   0.170000E+01   0.180000E+01   0.000000E+00
   0.190000E+01   0.200000E+01   0.000000E+00
SCALARS volume float 1
LOOKUP_TABLE default
   0.100000E-11
   0.100000E-11
   0.100000E-11
   0.100000E-11
TENSORS stress float
   0.683820E+01   0.000000E+00   0.000000E+00
   0.000000E+00   0.164956E+04   0.000000E+00
   0.000000E+00   0.000000E+00   0.000000E+00
   0.616453E+01   0.113374E+05   0.000000E+00
   0.113374E+05   0.165717E+04   0.000000E+00
   0.000000E+00   0.000000E+00   0.000000E+00
   0.683820E+01   0.592928E+04   0.000000E+00
   0.592928E+04   0.192136E+04   0.000000E+00
   0.000000E+00   0.000000E+00   0.000000E+00
   0.616453E+01   0.271787E+05   0.000000E+00
   0.271787E+05   0.193734E+04   0.000000E+00
   0.000000E+00   0.000000E+00   0.000000E+00
