# vtk DataFile Version 3.0
Particle data
ASCII
DATASET POLYDATA
POINTS 4 float
   0.904874E+00   0.193289E+01   0.000000E+00
   0.951537E+00   0.193289E+01   0.000000E+00
   0.904874E+00   0.189276E+01   0.000000E+00
   0.951537E+00   0.189276E+01   0.000000E+00
POINT_DATA 4
VECTORS velocity float
   0.690251-309   0.690251-309   0.000000E+00
   0.000000E+00   0.000000E+00   0.000000E+00
   0.170000E+01   0.180000E+01   0.000000E+00
   0.190000E+01   0.200000E+01   0.000000E+00
SCALARS volume float 1
LOOKUP_TABLE default
   0.100000E-11
   0.100000E-11
   0.100000E-11
   0.100000E-11
TENSORS stress float
   0.000000E+00   0.000000E+00   0.000000E+00
   0.000000E+00   0.238769E+04   0.000000E+00
   0.000000E+00   0.000000E+00   0.000000E+00
   0.000000E+00   0.178233E+04   0.000000E+00
   0.178233E+04   0.238881E+04   0.000000E+00
   0.000000E+00   0.000000E+00   0.000000E+00
   0.000000E+00   0.414730E+06   0.000000E+00
   0.414730E+06   0.262468E+04   0.000000E+00
   0.000000E+00   0.000000E+00   0.000000E+00
   0.000000E+00   0.444053E+06   0.000000E+00
   0.444053E+06   0.263417E+04   0.000000E+00
   0.000000E+00   0.000000E+00   0.000000E+00
