# vtk DataFile Version 3.0
Particle data
ASCII
DATASET POLYDATA
POINTS 4 float
   0.321961E+01   0.187805E+01   0.000000E+00
   0.326684E+01   0.187805E+01   0.000000E+00
   0.321961E+01   0.183900E+01   0.000000E+00
   0.326684E+01   0.183900E+01   0.000000E+00
POINT_DATA 4
VECTORS velocity float
   0.690251-309   0.690251-309   0.000000E+00
   0.000000E+00   0.000000E+00   0.000000E+00
   0.170000E+01   0.180000E+01   0.000000E+00
   0.190000E+01   0.200000E+01   0.000000E+00
SCALARS volume float 1
LOOKUP_TABLE default
   0.100000E-11
   0.100000E-11
   0.100000E-11
   0.100000E-11
TENSORS stress float
   0.211166E-01   0.140965E+05   0.000000E+00
   0.140965E+05   0.300907E+04   0.000000E+00
   0.000000E+00   0.000000E+00   0.000000E+00
   0.211166E-01   0.338233E+05   0.000000E+00
   0.338233E+05   0.299644E+04   0.000000E+00
   0.000000E+00   0.000000E+00   0.000000E+00
   0.211166E-01   0.530037E+06   0.000000E+00
   0.530037E+06   0.327842E+04   0.000000E+00
   0.000000E+00   0.000000E+00   0.000000E+00
   0.211166E-01   0.605725E+06   0.000000E+00
   0.605725E+06   0.327417E+04   0.000000E+00
   0.000000E+00   0.000000E+00   0.000000E+00
