# vtk DataFile Version 3.0
Particle data
ASCII
DATASET POLYDATA
POINTS 4 float
   0.563501E+00   0.196423E+01   0.000000E+00
   0.617654E+00   0.196423E+01   0.000000E+00
   0.563501E+00   0.192522E+01   0.000000E+00
   0.617654E+00   0.192522E+01   0.000000E+00
POINT_DATA 4
VECTORS velocity float
   0.690251-309   0.690251-309   0.000000E+00
   0.000000E+00   0.000000E+00   0.000000E+00
   0.170000E+01   0.180000E+01   0.000000E+00
   0.190000E+01   0.200000E+01   0.000000E+00
SCALARS volume float 1
LOOKUP_TABLE default
   0.100000E-11
   0.100000E-11
   0.100000E-11
   0.100000E-11
TENSORS stress float
   0.775116E+01   0.410807E+03   0.000000E+00
   0.410807E+03   0.125997E+04   0.000000E+00
   0.000000E+00   0.000000E+00   0.000000E+00
   0.116435E+02   0.119181E+05   0.000000E+00
   0.119181E+05   0.126771E+04   0.000000E+00
   0.000000E+00   0.000000E+00   0.000000E+00
   0.775116E+01   0.120169E+05   0.000000E+00
   0.120169E+05   0.153177E+04   0.000000E+00
   0.000000E+00   0.000000E+00   0.000000E+00
   0.116435E+02   0.277594E+05   0.000000E+00
   0.277594E+05   0.154789E+04   0.000000E+00
   0.000000E+00   0.000000E+00   0.000000E+00
