# vtk DataFile Version 3.0
Particle data
ASCII
DATASET POLYDATA
POINTS 4 float
   0.532694E+00   0.196901E+01   0.000000E+00
   0.587329E+00   0.196901E+01   0.000000E+00
   0.532694E+00   0.193004E+01   0.000000E+00
   0.587329E+00   0.193004E+01   0.000000E+00
POINT_DATA 4
VECTORS velocity float
   0.690251-309   0.690251-309   0.000000E+00
   0.000000E+00   0.000000E+00   0.000000E+00
   0.170000E+01   0.180000E+01   0.000000E+00
   0.190000E+01   0.200000E+01   0.000000E+00
SCALARS volume float 1
LOOKUP_TABLE default
   0.100000E-11
   0.100000E-11
   0.100000E-11
   0.100000E-11
TENSORS stress float
   0.113151E+02   0.820504E+03   0.000000E+00
   0.820504E+03   0.977352E+03   0.000000E+00
   0.000000E+00   0.000000E+00   0.000000E+00
   0.105049E+02   0.888484E+04   0.000000E+00
   0.888484E+04   0.984953E+03   0.000000E+00
   0.000000E+00   0.000000E+00   0.000000E+00
   0.113151E+02   0.124266E+05   0.000000E+00
   0.124266E+05   0.124915E+04   0.000000E+00
   0.000000E+00   0.000000E+00   0.000000E+00
   0.105049E+02   0.247262E+05   0.000000E+00
   0.247262E+05   0.126513E+04   0.000000E+00
   0.000000E+00   0.000000E+00   0.000000E+00
