# vtk DataFile Version 3.0
Particle data
ASCII
DATASET POLYDATA
POINTS 4 float
   0.849611E+00   0.193524E+01   0.000000E+00
   0.905068E+00   0.193524E+01   0.000000E+00
   0.849611E+00   0.189531E+01   0.000000E+00
   0.905068E+00   0.189531E+01   0.000000E+00
POINT_DATA 4
VECTORS velocity float
   0.690251-309   0.690251-309   0.000000E+00
   0.000000E+00   0.000000E+00   0.000000E+00
   0.170000E+01   0.180000E+01   0.000000E+00
   0.190000E+01   0.200000E+01   0.000000E+00
SCALARS volume float 1
LOOKUP_TABLE default
   0.100000E-11
   0.100000E-11
   0.100000E-11
   0.100000E-11
TENSORS stress float
   0.000000E+00   0.000000E+00   0.000000E+00
   0.000000E+00   0.237377E+04   0.000000E+00
   0.000000E+00   0.000000E+00   0.000000E+00
   0.000000E+00   0.429925E+04   0.000000E+00
   0.429925E+04   0.237445E+04   0.000000E+00
   0.000000E+00   0.000000E+00   0.000000E+00
   0.000000E+00   0.390842E+06   0.000000E+00
   0.390842E+06   0.261582E+04   0.000000E+00
   0.000000E+00   0.000000E+00   0.000000E+00
   0.000000E+00   0.418727E+06   0.000000E+00
   0.418727E+06   0.262488E+04   0.000000E+00
   0.000000E+00   0.000000E+00   0.000000E+00
