# vtk DataFile Version 3.0
Particle data
ASCII
DATASET POLYDATA
POINTS 4 float
   0.705708E+00   0.194571E+01   0.000000E+00
   0.761026E+00   0.194571E+01   0.000000E+00
   0.705708E+00   0.190620E+01   0.000000E+00
   0.761026E+00   0.190620E+01   0.000000E+00
POINT_DATA 4
VECTORS velocity float
   0.690251-309   0.690251-309   0.000000E+00
   0.000000E+00   0.000000E+00   0.000000E+00
   0.170000E+01   0.180000E+01   0.000000E+00
   0.190000E+01   0.200000E+01   0.000000E+00
SCALARS volume float 1
LOOKUP_TABLE default
   0.100000E-11
   0.100000E-11
   0.100000E-11
   0.100000E-11
TENSORS stress float
   0.657856E+01   0.000000E+00   0.000000E+00
   0.000000E+00   0.222240E+04   0.000000E+00
   0.000000E+00   0.000000E+00   0.000000E+00
   0.611456E+01   0.103761E+05   0.000000E+00
   0.103761E+05   0.223001E+04   0.000000E+00
   0.000000E+00   0.000000E+00   0.000000E+00
   0.657856E+01   0.000000E+00   0.000000E+00
   0.000000E+00   0.249421E+04   0.000000E+00
   0.000000E+00   0.000000E+00   0.000000E+00
   0.611456E+01   0.262174E+05   0.000000E+00
   0.262174E+05   0.251019E+04   0.000000E+00
   0.000000E+00   0.000000E+00   0.000000E+00
