# vtk DataFile Version 3.0
Particle data
ASCII
DATASET POLYDATA
POINTS 4 float
   0.301651E+01   0.188650E+01   0.000000E+00
   0.306380E+01   0.188650E+01   0.000000E+00
   0.301651E+01   0.184728E+01   0.000000E+00
   0.306380E+01   0.184728E+01   0.000000E+00
POINT_DATA 4
VECTORS velocity float
   0.690251-309   0.690251-309   0.000000E+00
   0.000000E+00   0.000000E+00   0.000000E+00
   0.170000E+01   0.180000E+01   0.000000E+00
   0.190000E+01   0.200000E+01   0.000000E+00
SCALARS volume float 1
LOOKUP_TABLE default
   0.100000E-11
   0.100000E-11
   0.100000E-11
   0.100000E-11
TENSORS stress float
   0.175243E+01   0.108287E+05   0.000000E+00
   0.108287E+05   0.279312E+04   0.000000E+00
   0.000000E+00   0.000000E+00   0.000000E+00
   0.152290E+01   0.242989E+05   0.000000E+00
   0.242989E+05   0.278049E+04   0.000000E+00
   0.000000E+00   0.000000E+00   0.000000E+00
   0.175243E+01   0.526770E+06   0.000000E+00
   0.526770E+06   0.306247E+04   0.000000E+00
   0.000000E+00   0.000000E+00   0.000000E+00
   0.152290E+01   0.596200E+06   0.000000E+00
   0.596200E+06   0.305822E+04   0.000000E+00
   0.000000E+00   0.000000E+00   0.000000E+00
