# vtk DataFile Version 3.0
Particle data
ASCII
DATASET POLYDATA
POINTS 4 float
   0.286868E+01   0.189290E+01   0.000000E+00
   0.291506E+01   0.189290E+01   0.000000E+00
   0.286868E+01   0.185344E+01   0.000000E+00
   0.291506E+01   0.185344E+01   0.000000E+00
POINT_DATA 4
VECTORS velocity float
   0.690251-309   0.690251-309   0.000000E+00
   0.000000E+00   0.000000E+00   0.000000E+00
   0.170000E+01   0.180000E+01   0.000000E+00
   0.190000E+01   0.200000E+01   0.000000E+00
SCALARS volume float 1
LOOKUP_TABLE default
   0.100000E-11
   0.100000E-11
   0.100000E-11
   0.100000E-11
TENSORS stress float
   0.000000E+00   0.936313E+04   0.000000E+00
   0.936313E+04   0.253224E+04   0.000000E+00
   0.000000E+00   0.000000E+00   0.000000E+00
   0.000000E+00   0.142891E+05   0.000000E+00
   0.142891E+05   0.251965E+04   0.000000E+00
   0.000000E+00   0.000000E+00   0.000000E+00
   0.000000E+00   0.525304E+06   0.000000E+00
   0.525304E+06   0.280159E+04   0.000000E+00
   0.000000E+00   0.000000E+00   0.000000E+00
   0.000000E+00   0.586190E+06   0.000000E+00
   0.586190E+06   0.279738E+04   0.000000E+00
   0.000000E+00   0.000000E+00   0.000000E+00
