# vtk DataFile Version 3.0
Particle data
ASCII
DATASET POLYDATA
POINTS 4 float
   0.638587E+00   0.195356E+01   0.000000E+00
   0.693501E+00   0.195356E+01   0.000000E+00
   0.638587E+00   0.191444E+01   0.000000E+00
   0.693501E+00   0.191444E+01   0.000000E+00
POINT_DATA 4
VECTORS velocity float
   0.690251-309   0.690251-309   0.000000E+00
   0.000000E+00   0.000000E+00   0.000000E+00
   0.170000E+01   0.180000E+01   0.000000E+00
   0.190000E+01   0.200000E+01   0.000000E+00
SCALARS volume float 1
LOOKUP_TABLE default
   0.100000E-11
   0.100000E-11
   0.100000E-11
   0.100000E-11
TENSORS stress float
   0.121668E+02   0.000000E+00   0.000000E+00
   0.000000E+00   0.167060E+04   0.000000E+00
   0.000000E+00   0.000000E+00   0.000000E+00
   0.114931E+02   0.103951E+05   0.000000E+00
   0.103951E+05   0.167821E+04   0.000000E+00
   0.000000E+00   0.000000E+00   0.000000E+00
   0.121668E+02   0.498698E+04   0.000000E+00
   0.498698E+04   0.194240E+04   0.000000E+00
   0.000000E+00   0.000000E+00   0.000000E+00
   0.114931E+02   0.262364E+05   0.000000E+00
   0.262364E+05   0.195838E+04   0.000000E+00
   0.000000E+00   0.000000E+00   0.000000E+00
