# vtk DataFile Version 3.0
Particle data
ASCII
DATASET POLYDATA
POINTS 4 float
   0.330422E+01   0.187456E+01   0.000000E+00
   0.335149E+01   0.187456E+01   0.000000E+00
   0.330422E+01   0.183555E+01   0.000000E+00
   0.335149E+01   0.183555E+01   0.000000E+00
POINT_DATA 4
VECTORS velocity float
   0.690251-309   0.690251-309   0.000000E+00
   0.000000E+00   0.000000E+00   0.000000E+00
   0.170000E+01   0.180000E+01   0.000000E+00
   0.190000E+01   0.200000E+01   0.000000E+00
SCALARS volume float 1
LOOKUP_TABLE default
   0.100000E-11
   0.100000E-11
   0.100000E-11
   0.100000E-11
TENSORS stress float
   0.000000E+00   0.137872E+05   0.000000E+00
   0.137872E+05   0.311349E+04   0.000000E+00
   0.000000E+00   0.000000E+00   0.000000E+00
   0.000000E+00   0.366664E+05   0.000000E+00
   0.366664E+05   0.310087E+04   0.000000E+00
   0.000000E+00   0.000000E+00   0.000000E+00
   0.000000E+00   0.529728E+06   0.000000E+00
   0.529728E+06   0.338284E+04   0.000000E+00
   0.000000E+00   0.000000E+00   0.000000E+00
   0.000000E+00   0.608568E+06   0.000000E+00
   0.608568E+06   0.337859E+04   0.000000E+00
   0.000000E+00   0.000000E+00   0.000000E+00
