# vtk DataFile Version 3.0
Particle data
ASCII
DATASET POLYDATA
POINTS 4 float
   0.566428E+00   0.196365E+01   0.000000E+00
   0.620595E+00   0.196365E+01   0.000000E+00
   0.566428E+00   0.192464E+01   0.000000E+00
   0.620595E+00   0.192464E+01   0.000000E+00
POINT_DATA 4
VECTORS velocity float
   0.690251-309   0.690251-309   0.000000E+00
   0.000000E+00   0.000000E+00   0.000000E+00
   0.170000E+01   0.180000E+01   0.000000E+00
   0.190000E+01   0.200000E+01   0.000000E+00
SCALARS volume float 1
LOOKUP_TABLE default
   0.100000E-11
   0.100000E-11
   0.100000E-11
   0.100000E-11
TENSORS stress float
   0.543598E+01   0.332019E+03   0.000000E+00
   0.332019E+03   0.126910E+04   0.000000E+00
   0.000000E+00   0.000000E+00   0.000000E+00
   0.984867E+01   0.119379E+05   0.000000E+00
   0.119379E+05   0.127686E+04   0.000000E+00
   0.000000E+00   0.000000E+00   0.000000E+00
   0.543598E+01   0.119381E+05   0.000000E+00
   0.119381E+05   0.154090E+04   0.000000E+00
   0.000000E+00   0.000000E+00   0.000000E+00
   0.984867E+01   0.277792E+05   0.000000E+00
   0.277792E+05   0.155703E+04   0.000000E+00
   0.000000E+00   0.000000E+00   0.000000E+00
