# vtk DataFile Version 3.0
Particle data
ASCII
DATASET POLYDATA
POINTS 4 float
   0.536920E+00   0.196840E+01   0.000000E+00
   0.591550E+00   0.196840E+01   0.000000E+00
   0.536920E+00   0.192943E+01   0.000000E+00
   0.591550E+00   0.192943E+01   0.000000E+00
POINT_DATA 4
VECTORS velocity float
   0.690251-309   0.690251-309   0.000000E+00
   0.000000E+00   0.000000E+00   0.000000E+00
   0.170000E+01   0.180000E+01   0.000000E+00
   0.190000E+01   0.200000E+01   0.000000E+00
SCALARS volume float 1
LOOKUP_TABLE default
   0.100000E-11
   0.100000E-11
   0.100000E-11
   0.100000E-11
TENSORS stress float
   0.121755E+02   0.803596E+03   0.000000E+00
   0.803596E+03   0.980849E+03   0.000000E+00
   0.000000E+00   0.000000E+00   0.000000E+00
   0.113653E+02   0.886794E+04   0.000000E+00
   0.886794E+04   0.988449E+03   0.000000E+00
   0.000000E+00   0.000000E+00   0.000000E+00
   0.121755E+02   0.124097E+05   0.000000E+00
   0.124097E+05   0.125265E+04   0.000000E+00
   0.000000E+00   0.000000E+00   0.000000E+00
   0.113653E+02   0.247093E+05   0.000000E+00
   0.247093E+05   0.126862E+04   0.000000E+00
   0.000000E+00   0.000000E+00   0.000000E+00
