# vtk DataFile Version 3.0
Particle data
ASCII
DATASET POLYDATA
POINTS 4 float
   0.543945E+00   0.196740E+01   0.000000E+00
   0.598577E+00   0.196740E+01   0.000000E+00
   0.543945E+00   0.192844E+01   0.000000E+00
   0.598577E+00   0.192844E+01   0.000000E+00
POINT_DATA 4
VECTORS velocity float
   0.690251-309   0.690251-309   0.000000E+00
   0.000000E+00   0.000000E+00   0.000000E+00
   0.170000E+01   0.180000E+01   0.000000E+00
   0.190000E+01   0.200000E+01   0.000000E+00
SCALARS volume float 1
LOOKUP_TABLE default
   0.100000E-11
   0.100000E-11
   0.100000E-11
   0.100000E-11
TENSORS stress float
   0.121047E+02   0.753995E+03   0.000000E+00
   0.753995E+03   0.986987E+03   0.000000E+00
   0.000000E+00   0.000000E+00   0.000000E+00
   0.112945E+02   0.881834E+04   0.000000E+00
   0.881834E+04   0.994588E+03   0.000000E+00
   0.000000E+00   0.000000E+00   0.000000E+00
   0.121047E+02   0.123601E+05   0.000000E+00
   0.123601E+05   0.125879E+04   0.000000E+00
   0.000000E+00   0.000000E+00   0.000000E+00
   0.112945E+02   0.246597E+05   0.000000E+00
   0.246597E+05   0.127476E+04   0.000000E+00
   0.000000E+00   0.000000E+00   0.000000E+00
