# vtk DataFile Version 3.0
Particle data
ASCII
DATASET POLYDATA
POINTS 4 float
   0.292067E+01   0.189057E+01   0.000000E+00
   0.296793E+01   0.189057E+01   0.000000E+00
   0.292067E+01   0.185123E+01   0.000000E+00
   0.296793E+01   0.185123E+01   0.000000E+00
POINT_DATA 4
VECTORS velocity float
   0.690251-309   0.690251-309   0.000000E+00
   0.000000E+00   0.000000E+00   0.000000E+00
   0.170000E+01   0.180000E+01   0.000000E+00
   0.190000E+01   0.200000E+01   0.000000E+00
SCALARS volume float 1
LOOKUP_TABLE default
   0.100000E-11
   0.100000E-11
   0.100000E-11
   0.100000E-11
TENSORS stress float
   0.000000E+00   0.111351E+05   0.000000E+00
   0.111351E+05   0.258364E+04   0.000000E+00
   0.000000E+00   0.000000E+00   0.000000E+00
   0.000000E+00   0.176512E+05   0.000000E+00
   0.176512E+05   0.257100E+04   0.000000E+00
   0.000000E+00   0.000000E+00   0.000000E+00
   0.000000E+00   0.527076E+06   0.000000E+00
   0.527076E+06   0.285299E+04   0.000000E+00
   0.000000E+00   0.000000E+00   0.000000E+00
   0.000000E+00   0.589553E+06   0.000000E+00
   0.589553E+06   0.284873E+04   0.000000E+00
   0.000000E+00   0.000000E+00   0.000000E+00
