# vtk DataFile Version 3.0
Particle data
ASCII
DATASET POLYDATA
POINTS 4 float
   0.933471E+00   0.193168E+01   0.000000E+00
   0.978601E+00   0.193168E+01   0.000000E+00
   0.933471E+00   0.189164E+01   0.000000E+00
   0.978601E+00   0.189164E+01   0.000000E+00
POINT_DATA 4
VECTORS velocity float
   0.690251-309   0.690251-309   0.000000E+00
   0.000000E+00   0.000000E+00   0.000000E+00
   0.170000E+01   0.180000E+01   0.000000E+00
   0.190000E+01   0.200000E+01   0.000000E+00
SCALARS volume float 1
LOOKUP_TABLE default
   0.100000E-11
   0.100000E-11
   0.100000E-11
   0.100000E-11
TENSORS stress float
   0.000000E+00   0.000000E+00   0.000000E+00
   0.000000E+00   0.238844E+04   0.000000E+00
   0.000000E+00   0.000000E+00   0.000000E+00
   0.000000E+00   0.175886E+03   0.000000E+00
   0.175886E+03   0.238955E+04   0.000000E+00
   0.000000E+00   0.000000E+00   0.000000E+00
   0.000000E+00   0.422897E+06   0.000000E+00
   0.422897E+06   0.262503E+04   0.000000E+00
   0.000000E+00   0.000000E+00   0.000000E+00
   0.000000E+00   0.452219E+06   0.000000E+00
   0.452219E+06   0.263451E+04   0.000000E+00
   0.000000E+00   0.000000E+00   0.000000E+00
